! def2-qzvpp verytightscf noautostart usesym

%casscf
 nel 2
 norb 4
 end

* xyz 0 1
Be 0 0 0
*
