
                                 *****************
                                 * O   R   C   A *
                                 *****************

                                            #,                                       
                                            ###                                      
                                            ####                                     
                                            #####                                    
                                            ######                                   
                                           ########,                                 
                                     ,,################,,,,,                         
                               ,,#################################,,                 
                          ,,##########################################,,             
                       ,#########################################, ''#####,          
                    ,#############################################,,   '####,        
                  ,##################################################,,,,####,       
                ,###########''''           ''''###############################       
              ,#####''   ,,,,##########,,,,          '''####'''          '####       
            ,##' ,,,,###########################,,,                        '##       
           ' ,,###''''                  '''############,,,                           
         ,,##''                                '''############,,,,        ,,,,,,###''
      ,#''                                            '''#######################'''  
     '                                                          ''''####''''         
             ,#######,   #######,   ,#######,      ##                                
            ,#'     '#,  ##    ##  ,#'     '#,    #''#        ,####,    ,#,          
            ##       ##  ##   ,#'  ##            #'  '#       #'       ,# #          
            ##       ##  #######   ##           ,######,      #####,      #          
            '#,     ,#'  ##    ##  '#,     ,#' ,#      #,     #,   #      #          
             '#######'   ##     ##  '#######'  #'      '#     '####' #    #          



                #########################################################
                #                        -***-                          #
                #          Department of theory and spectroscopy        #
                #                                                       #
                #                      Frank Neese                      #
                #                                                       #
                #     Directorship, Architecture, Infrastructure        #
                #                    SHARK, DRIVERS                     #
                #        Core code/Algorithms in most modules           #
                #                                                       #
                #        Max Planck Institute fuer Kohlenforschung      #
                #                Kaiser Wilhelm Platz 1                 #
                #                 D-45470 Muelheim/Ruhr                 #
                #                      Germany                          #
                #                                                       #
                #                  All rights reserved                  #
                #                        -***-                          #
                #########################################################


                         Program Version 6.1.1  -  RELEASE   -
                                (GIT: $487d211c$)
                          ($2025-11-21 10:33:24 +0100$)


 With contributions from (in alphabetic order):
[Max-Planck-Institut fuer Kohlenforschung]                               
  Daniel Aravena         : Magnetic Suceptibility                        
  Michael Atanasov       : Ab Initio Ligand Field Theory (pilot matlab implementation)
  Alexander A. Auer      : GIAO ZORA, VPT2 properties, NMR spectrum      
  Ute Becker             : All parallelization in ORCA, NUMFREQ, NUMCALC 
  Giovanni Bistoni       : ED, misc. LED, open-shell LED, HFLD           
  Dmytro Bykov           : pre 5.0 version of the SCF Hessian            
  Marcos Casanova-Páez   : Triplet and SCS-CIS(D). UHF-(DLPNO)-IP/EA/STEOM-CCSD. UHF-CVS-IP/STEOM-CCSD   
  Vijay G. Chilkuri      : MRCI spin determinant printing, contributions to CSF-ICE 
  Pauline Colinet        : FMM embedding                                 
  Dipayan Datta          : RHF DLPNO-CCSD density                        
  Achintya Kumar Dutta   : EOM-CC, STEOM-CC                              
  Nicolas Foglia         : Exact transition moments, OPA infrastructure, MCD improvements    
  Dmitry Ganyushin       : Spin-Orbit,Spin-Spin,Magnetic field MRCI      
  Miquel Garcia-Rates    : C-PCM and meta-GGA Hessian, CCSD/C-PCM, Gaussian charge scheme 
  Tiago L. C. Gouveia    : GS-ROHF, GS-ROCIS                             
  Yang Guo               : DLPNO-NEVPT2, F12-NEVPT2, CIM, IAO-localization        
  Andreas Hansen         : Spin unrestricted coupled pair/coupled cluster methods 
  Ingolf Harden          : AUTO-CI MPn and infrastructure                
  Benjamin Helmich-Paris : MC-RPA, TRAH-(SCF,CASSCF), AVAS, COSX integrals, SCF dyn. polar., MC-PDFT, srDFT 
  Lee Huntington         : MR-EOM, pCC                                   
  Robert Izsak           : Overlap fitted RIJCOSX, COSX-SCS-MP3, EOM     
  Riya Kayal             : Wick's Theorem for AUTO-CI, AUTO-CI UHF-CCSDT 
  Emily Kempfer          : AUTO-CI RHF CISDT and CCSDT, approximate NEVPT4
  Christian Kollmar      : KDIIS, OOCD, Brueckner-CCSD(T), CCSD density, CASPT2, CASPT2-K, improved NEVPT2 
  Axel Koslowski         : Symmetry handling                             
  Simone Kossmann        : meta-GGA functionals, TD-DFT gradient, OOMP2, (MP2 Hessian; deprecated post 5.0) 
  Lucas Lang             : DCDCAS, Hyperfine gauge corrections, ICE-SOC+SSC
  Marvin Lechner         : AUTO-CI (C++ implementation), FIC-MRCC        
  Spencer Leger          : CASSCF response                               
  Dagmar Lenk            : GEPOL surface, SMD, ORCA-2-JSON               
  Dimitrios Liakos       : Extrapolation schemes; Compound Job, Property file
  Dimitrios Manganas     : Further ROCIS development; embedding schemes. LFT, Crystal Embedding 
  Dimitrios Pantazis     : SARC Basis sets                               
  Anastasios Papadopoulos: AUTO-CI, single reference methods and gradients 
  Taras Petrenko         : pre 6.0 DFT Hessian and TD-DFT gradient,  ECA, NRVS 
  Petra Pikulova         : Analytic Raman intensities                    
  Peter Pinski           : DLPNO-MP2, DLPNO-MP2 Gradient                 
  Shashank Vittal Rao    : ES-AILFT, MagRelax                            
  Christoph Reimann      : Effective Core Potentials                     
  Marius Retegan         : Local ZFS, SOC                                
  Christoph Riplinger    : Optimizer, TS searches, QM/MM, DLPNO-CCSD(T), (RO)-DLPNO pert. Triples 
  Michael Roemelt        : Original ROCIS implementation, recursive CI coupling coefficients
  Masaaki Saitow         : Open-shell DLPNO-CCSD energy and density      
  Barbara Sandhoefer     : DKH picture change effects                    
  Yorick L. A. Schmerwitz: GMF and freeze-and-release deltaSCF, NEB S-IDPP initial path                    
  Kantharuban Sivalingam : CASSCF convergence/infrastructure, NEVPT2, NEVPT3, NEVPT4(SD), FIC-MRCI and CEPA variants
  Bernardo de Souza      : ESD, SOC TD-DFT                               
  Georgi L. Stoychev     : AutoAux, RI-MP2 NMR, DLPNO-MP2 response, X2C  
  Van Anh Tran           : RI-MP2 g-tensors                              
  Willem Van den Heuvel  : Paramagnetic NMR                              
  Zikuan Wang            : NOTCH, Electric field optimization            
  Frank Wennmohs         : Technical directorship and infrastructure     
  Hang Xu                : AUTO-CI-Response properties                   
                                                                         
[FACCTs GmbH]                                                            
  Markus Bursch, Nicolas Foglia, Miquel Garcia-Rates, Ingolf Harden, Hagen Neugebauer, Anastasios Papadopoulos, 
  Christoph Riplinger, Bernardo de Souza, Georgi L. Stoychev                                                    
                                                                 
  APM, various basis sets, CI-OPT, improved COSX, DLPNO-Multilevel,           
  DOCKER, DRACO, updates on ESD, Fragmentator, GOAT, IRC, LR-CPCM, L-BFGS, MBIS, meta-GGA TD-DFT gradient, ML-optimized integration grids, 
  MM, NACMEs, nearIR, NEB, NEB-TS, NL-DFT gradient (VV10), 2- and 3-layer-ONIOM, interface openCOSMO-RS, QMMM,   
  Crystal-QMMM, RESP, rigid body optimization, SF, symmetry and pop. for TD-DFT, various functionals, SOLVATOR                                   
                                                                         
[Other institutions]                                                     
  V. Asgeirsson          : NEB                                           
  Christoph Bannwarth    : sTDA-DFT, sTD-DFT, PBEh-3c, B97-3c, D3        
  Giovanni Bistoni       : ETS/NOCV, ADLD/ADEX, COVALED                  
  Martin Brehm           : Molecular dynamics                            
  Ronald Cardenas        : ETS/NOCV                                      
  Martina Colucci        : COVALED                                       
  Sebastian Ehlert       : rSCAN, r2SCAN, r2SCAN-3c, D4, dhf basis sets  
  Marvin Friede          : D4 for Fr, Ra, Ac-Lr                          
  Lars Goerigk           : TD-DFT with DH, B97 family of functionals     
  Stefan Grimme          : VdW corrections, initial TS optimization, DFT functionals, gCP, sTDA/sTD-DF 
  Waldemar Hujo          : DFT-NL                                        
  H. Jonsson             : NEB                                           
  Holger Kruse           : gCP                                           
  Marcel Mueller         : wB97X-3c, vDZP basis set                      
  Hagen Neugebauer       : wr2SCAN, Native XTB                           
  Gianluca Regni         : ADLD/ADEX                                     
  Tobias Risthaus        : pre 6.0 range-separated hybrid DFT and stability analysis
  Lukas Wittmann         : regularized MP2, r2SCAN double-hybrids, wr2SCAN        
                                                                         
We gratefully acknowledge several colleagues who have allowed us to      
interface, adapt or use parts of their codes:                            
  Ed Valeev, F. Pavosevic, A. Kumar             : LibInt (2-el integral package), F12 methods 
  Garnet Chan, S. Sharma, J. Yang, R. Olivares  : DMRG                   
  Ulf Ekstrom                                   : XCFun DFT Library      
  Mihaly Kallay                                 : mrcc  (arbitrary order and MRCC methods)
  Frank Weinhold                                : gennbo (NPA and NBO analysis)           
  Simon Mueller                                 : openCOSMO-RS                            
  Christopher J. Cramer and Donald G. Truhlar   : smd solvation model                     
  S Lehtola, MJT Oliveira, MAL Marques          : LibXC Library                           
  Liviu Ungur et al                             : ANISO software                          


 Your calculation uses the libint2 library for the computation of 2-el integrals
 For citations please refer to: http://libint.valeyev.net

 Your ORCA version has been built with support for libXC version: 7.0.0
 For citations please refer to: https://libxc.gitlab.io

 This ORCA versions uses:
   CBLAS   interface :  Fast vector & matrix operations
   LAPACKE interface :  Fast linear algebra routines
   SCALAPACK package :  Parallel linear algebra routines
   Shared memory     :  Shared parallel matrices
   BLAS/LAPACK       :  OpenBLAS 0.3.29  USE64BITINT DYNAMIC_ARCH NO_AFFINITY Zen SINGLE_THREADED
        Core in use  :  Zen
   Copyright (c) 2011-2014, The OpenBLAS Project


  ***********************************
  * Starting time: Tue Sep 29 16:58:10 2026
  * Host name:     meyeri
  * Process ID:    2562389
  * Working dir.:  /home/eric/data/cclib/calculations/1509/zeo_clean
  ***********************************

NOTE: MaxCore=40000 MB was set to SCF,MP2,MDCI,CIPSI,MRCI,RASCI and CIS
      => If you want to overwrite this, your respective input block should be placed after the MaxCore statement


***************************************
The coordinates will be read from file: zeo_clean.xyz
***************************************


leaving
================================================================================

----- Orbital basis set information -----
================================================================================
                                        WARNINGS
                       Please study these warnings very carefully!
================================================================================


WARNING: Direct SCF is incompatible with Method<>HF and Method<>DFT
  ===> : conventional SCF is chosen

WARNING: The NDO methods need Guess=HUECKEL or Guess=HCORE or Guess=MOREAD
  ===> : Guess is set to Hueckel

WARNING: The NDO methods need %rel::SOCType==1
  ===> : %rel::SOCType is set to 1

WARNING: The NDO methods cannot have frozencore=1
  ===> : %method FrozenCore=0 end

WARNING: CIS/ROCIS methods need fully converged wavefunctions
  ===> : Setting SCFConvForced true
         You can overwrite this default with %scf ConvForced false 


================================================================================
                                       INPUT FILE
================================================================================
NAME = orca_zindos_lessprint.in
|  1> ! zindo/s SP noautostart miniprint noprintmos
|  2> %maxcore 40000
|  3> 
|  4> %tddft
|  5> nroots 50
|  6> end
|  7> 
|  8> * xyzfile 0 1 zeo_clean.xyz
|  9> 
| 10>                          ****END OF INPUT****
================================================================================

                       ****************************
                       * Single Point Calculation *
                       ****************************

---------------------------------
CARTESIAN COORDINATES (ANGSTROEM)
---------------------------------
  H     11.914196   15.824289    8.322765
  Al    11.050646   13.748989    8.225677
  O     10.956939   15.544243    8.325056
  O     12.680506   13.789104    8.690966
  O     10.789834   13.295247    6.638718
  O      9.936927   13.097568    9.314528
  Si     9.723309   16.666465    8.718846
  Si    13.889989   12.682468    8.824661
  Si     9.758592   12.402260   10.797928
  Si     9.787084   12.377210    5.726424
  O      8.208110   16.147260    8.555980
  Si     6.928920   15.276260    8.801840
  O     10.099860   17.770800    7.677860
  Si     9.768630   18.262050    6.182080
  O     10.099860   17.074000   10.196860
  Si     9.768630   18.262050   11.220080
  O     15.163940   13.548190    8.601830
  Si    16.706440   13.743300    8.287960
  O     13.858420   11.412500    7.808340
  Si    13.858420   10.858540    6.282840
  O     13.858420   12.088400   10.301150
  Si    13.858420   10.858540   11.320840
  O     10.099860   10.821960   10.904700
  Si    11.018710    9.552040   11.220080
  O     10.677780   13.213730   11.859900
  Si    11.010400   13.743300   13.325960
  O      8.234440   12.586610   11.120830
  Si     6.928920   13.480250   11.338470
  O     10.109560   12.921070    4.302900
  Si    11.010400   13.743300    3.249960
  O     10.099860   10.821960    5.866700
  Si    11.018710    9.552040    6.182080
  O      8.234440   12.586610    6.082830
  Si     6.928920   13.480250    6.300470
  O     12.579230    9.987540    6.036980
  O      6.928920   14.046400    7.782150
  O     12.579230    9.987540   11.074980
  O      6.928920   14.722300   10.327340
  H     10.677780   13.213730    1.783900
  H      1.278610    7.437260    3.517980
  O      3.757980    6.602840    3.347700
  H      3.748280    4.503730    1.783900
  Si    11.018710    9.552040    1.144080
  O      8.208110   16.147260    3.517980
  O     10.687480   15.312840    3.347700
  H     10.099860   17.074000    0.120860
  Si     9.768630   16.582750    3.663080
  O     12.579230    9.987540    0.998980
  O     12.552900   13.548190    3.563830
  H     10.099860   10.821960    0.828700
  O     10.687480    9.060800    2.639860
  Si     2.839130    7.872760    3.663080
  Si     4.080900    5.033300    3.249960
  O      5.623400    4.838190    3.563830
  O      3.180060    4.211070    4.302900
  Si     4.089210   16.582750    3.663080
  Si     2.847440   13.743300    3.249960
  H      1.304940   13.548190    3.563830
  O      3.748280   12.921070    4.302900
  Si    11.018710    7.872760    3.663080
  Si     9.776940    5.033300    3.249960
  O      8.234440    4.838190    3.563830
  O     10.677780    4.211070    4.302900
  O     12.579230    7.437260    3.517980
  O     10.099860    6.602840    3.347700
  H     10.687480    8.364000    0.120860
  H     10.109560    4.503730    1.783900
  O      5.649730   16.147260    3.517980
  O      3.170360   15.312840    3.347700
  H      3.757980   17.074000    0.120860
  H      3.180060   13.213730    1.783900
  Si     6.928920   15.276260    3.763840
  Si     6.928920    3.944550    3.781470
  Si     2.847440    3.681500    5.768960
  H      1.278610    7.437260    8.555980
  H      1.304940    3.876610    6.082830
  O      3.757980    6.602840    8.385700
  O      3.170360    8.364000    5.158860
  O      3.748280    4.503730    6.821900
  O     10.099860   17.074000    5.158860
  O     10.687480    9.060800    7.677860
  Si     2.839130    7.872760    8.701080
  Si     4.080900    5.033300    8.287960
  H      5.649730    1.277540    6.036980
  O      5.623400    4.838190    8.601830
  H      3.170360    2.111960    5.866700
  O      3.180060    4.211070    9.340900
  Si     4.089210   16.582750    8.701080
  Si     2.847440   13.743300    8.287960
  H      1.278610    9.987540    6.036980
  H      1.304940   13.548190    8.601830
  O      3.757980   10.821960    5.866700
  O      3.170360    9.060800    7.677860
  O      3.748280   12.921070    9.340900
  Si    11.018710    7.872760    8.701080
  Si     9.776940    5.033300    8.287960
  H      8.208110    1.277540    6.036980
  O      8.234440    4.838190    8.601830
  H     10.687480    2.111960    5.866700
  O     10.677780    4.211070    9.340900
  Si    11.010400    3.681500    5.768960
  O     12.579230    7.437260    8.555980
  O     12.552900    3.876610    6.082830
  O     10.099860    6.602840    8.385700
  O     10.687480    8.364000    5.158860
  O     10.109560    4.503730    6.821900
  Si     2.839130    9.552040    6.182080
  Si     4.080900   12.391500    5.768960
  O      5.649730   16.147260    8.555980
  O      5.623400   12.586610    6.082830
  O      3.170360   15.312840    8.385700
  O      3.757980   17.074000    5.158860
  O      3.180060   13.213730    6.821900
  O      6.928920   14.722300    5.289340
  Si     6.928920    3.944550    8.819470
  Si     6.928920    2.148540    6.282840
  O      6.928920    3.378400    5.263150
  O      6.928920    2.702500    7.808340
  O     15.137610    7.437260    3.517980
  O     17.616980    6.602840    3.347700
  H     17.029360    8.364000    0.120860
  H     17.607280    4.503730    1.783900
  O     22.067110   16.147260    3.517980
  O     24.546480   15.312840    3.347700
  H     23.958860   17.074000    0.120860
  H     24.536780   13.213730    1.783900
  Si    23.627630   16.582750    3.663080
  Si    24.869400   13.743300    3.249960
  H     26.411900   13.548190    3.563830
  O     23.968560   12.921070    4.302900
  Si    16.698130    7.872760    3.663080
  Si    17.939900    5.033300    3.249960
  O     19.482400    4.838190    3.563830
  O     17.039060    4.211070    4.302900
  Si    17.948210   16.582750    3.663080
  Si    16.706440   13.743300    3.249960
  O     15.137610    9.987540    0.998980
  O     15.163940   13.548190    3.563830
  H     17.616980   10.821960    0.828700
  O     17.029360    9.060800    2.639860
  O     17.607280   12.921070    4.302900
  Si    24.877710    7.872760    3.663080
  Si    23.635940    5.033300    3.249960
  O     22.093440    4.838190    3.563830
  O     24.536780    4.211070    4.302900
  H     26.438230    7.437260    3.517980
  O     23.958860    6.602840    3.347700
  H     23.968560    4.503730    1.783900
  Si    16.698130    9.552040    1.144080
  O     19.508730   16.147260    3.517980
  O     17.029360   15.312840    3.347700
  H     17.616980   17.074000    0.120860
  H     17.039060   13.213730    1.783900
  Si    13.858420    6.566260    3.763840
  Si    20.787920   15.276260    3.763840
  Si    13.858420   12.654550    3.781470
  Si    13.858420   10.858540    1.244840
  H     13.858420   12.088400    0.225150
  O     13.858420   11.412500    2.770340
  Si    20.787920    3.944550    3.781470
  Si    16.706440    3.681500    5.768960
  O     15.137610    7.437260    8.555980
  O     15.163940    3.876610    6.082830
  O     17.616980    6.602840    8.385700
  O     17.029360    8.364000    5.158860
  O     17.607280    4.503730    6.821900
  Si    24.877710    9.552040    6.182080
  Si    23.635940   12.391500    5.768960
  O     22.067110   16.147260    8.555980
  O     22.093440   12.586610    6.082830
  O     24.546480   15.312840    8.385700
  O     23.958860   17.074000    5.158860
  O     24.536780   13.213730    6.821900
  Si    23.627630   16.582750    8.701080
  Si    24.869400   13.743300    8.287960
  H     26.438230    9.987540    6.036980
  H     26.411900   13.548190    8.601830
  O     23.958860   10.821960    5.866700
  O     24.546480    9.060800    7.677860
  O     23.968560   12.921070    9.340900
  Si    16.698130    7.872760    8.701080
  Si    17.939900    5.033300    8.287960
  H     19.508730    1.277540    6.036980
  O     19.482400    4.838190    8.601830
  H     17.029360    2.111960    5.866700
  O     17.039060    4.211070    9.340900
  Si    17.948210   16.582750    8.701080
  O     15.137610    9.987540    6.036980
  O     17.616980   10.821960    5.866700
  O     17.029360    9.060800    7.677860
  O     17.607280   12.921070    9.340900
  Si    24.877710    7.872760    8.701080
  Si    23.635940    5.033300    8.287960
  H     22.067110    1.277540    6.036980
  O     22.093440    4.838190    8.601830
  H     24.546480    2.111960    5.866700
  O     24.536780    4.211070    9.340900
  Si    24.869400    3.681500    5.768960
  H     26.438230    7.437260    8.555980
  H     26.411900    3.876610    6.082830
  O     23.958860    6.602840    8.385700
  O     24.546480    8.364000    5.158860
  O     23.968560    4.503730    6.821900
  Si    16.698130    9.552040    6.182080
  Si    17.939900   12.391500    5.768960
  O     19.508730   16.147260    8.555980
  O     19.482400   12.586610    6.082830
  O     17.029360   15.312840    8.385700
  O     17.616980   17.074000    5.158860
  O     17.039060   13.213730    6.821900
  Si    13.858420    4.770250    6.300470
  Si    13.858420    6.566260    8.801840
  O     13.858420    5.336400    7.782150
  O     13.858420    6.012300    5.289340
  Si    20.787920   13.480250    6.300470
  Si    20.787920   15.276260    8.801840
  O     20.787920   14.046400    7.782150
  O     20.787920   14.722300    5.289340
  O     13.858420   12.088400    5.263150
  Si    20.787920    3.944550    8.819470
  Si    20.787920    2.148540    6.282840
  O     20.787920    3.378400    5.263150
  O     20.787920    2.702500    7.808340
  Si     4.089210   18.262050    1.144080
  H      1.278610   24.857260    3.517980
  O      3.757980   24.022840    3.347700
  H      3.748280   21.923730    1.783900
  Si    11.018710   26.972040    1.144080
  H     10.687480   32.732840    3.347700
  H     10.677780   30.633730    1.783900
  Si    11.010400   31.163300    3.249960
  O     12.579230   27.407540    0.998980
  O     12.552900   30.968190    3.563830
  H     10.099860   28.241960    0.828700
  O     10.687480   26.480800    2.639860
  O     10.109560   30.341070    4.302900
  Si     2.839130   25.292760    3.663080
  Si     4.080900   22.453300    3.249960
  O      5.649730   18.697540    0.998980
  O      5.623400   22.258190    3.563830
  H      3.170360   19.531960    0.828700
  O      3.757980   17.770800    2.639860
  O      3.180060   21.631070    4.302900
  Si    11.018710   25.292760    3.663080
  Si     9.776940   22.453300    3.249960
  O      8.208110   18.697540    0.998980
  O      8.234440   22.258190    3.563830
  H     10.687480   19.531960    0.828700
  O     10.099860   17.770800    2.639860
  O     10.677780   21.631070    4.302900
  Si     9.768630   18.262050    1.144080
  O     12.579230   24.857260    3.517980
  O     10.099860   24.022840    3.347700
  H     10.687480   25.784000    0.120860
  H     10.109560   21.923730    1.783900
  Si     6.928920   21.364550    3.781470
  Si     6.928920   19.568540    1.244840
  H      6.928920   20.798400    0.225150
  O      6.928920   20.122500    2.770340
  Si     4.089210   18.262050    6.182080
  Si     2.847440   21.101500    5.768960
  H      1.278610   24.857260    8.555980
  H      1.304940   21.296610    6.082830
  O      3.757980   24.022840    8.385700
  O      3.170360   25.784000    5.158860
  O      3.748280   21.923730    6.821900
  Si    11.018710   26.972040    6.182080
  Si     9.776940   29.811500    5.768960
  H      8.208110   33.567270    8.555980
  O      8.234440   30.006610    6.082830
  H     10.687480   32.732840    8.385700
  O     10.677780   30.633730    6.821900
  Si    11.010400   31.163300    8.287960
  O     12.579230   27.407540    6.036980
  O     12.552900   30.968190    8.601830
  O     10.099860   28.241960    5.866700
  O     10.687480   26.480800    7.677860
  O     10.109560   30.341070    9.340900
  Si     2.839130   25.292760    8.701080
  Si     4.080900   22.453300    8.287960
  O      5.649730   18.697540    6.036980
  O      5.623400   22.258190    8.601830
  O      3.170360   19.531960    5.866700
  O      3.757980   17.770800    7.677860
  O      3.180060   21.631070    9.340900
  Si     2.847440   31.163300    8.287960
  H      1.278610   27.407540    6.036980
  H      1.304940   30.968190    8.601830
  O      3.757980   28.241960    5.866700
  O      3.170360   26.480800    7.677860
  O      3.748280   30.341070    9.340900
  Si    11.018710   25.292760    8.701080
  Si     9.776940   22.453300    8.287960
  O      8.208110   18.697540    6.036980
  O      8.234440   22.258190    8.601830
  O     10.687480   19.531960    5.866700
  O     10.677780   21.631070    9.340900
  Si    11.010400   21.101500    5.768960
  O     12.579230   24.857260    8.555980
  O     12.552900   21.296610    6.082830
  O     10.099860   24.022840    8.385700
  O     10.687480   25.784000    5.158860
  O     10.109560   21.923730    6.821900
  Si     2.839130   26.972040    6.182080
  Si     4.080900   29.811500    5.768960
  H      5.649730   33.567270    8.555980
  O      5.623400   30.006610    6.082830
  H      3.170360   32.732840    8.385700
  O      3.180060   30.633730    6.821900
  Si     6.928920   30.900250    6.300470
  Si     6.928920   32.696260    8.801840
  O      6.928920   31.466400    7.782150
  Si     6.928920   21.364550    8.819470
  Si     6.928920   19.568540    6.282840
  O      6.928920   20.798400    5.263150
  O      6.928920   20.122500    7.808340
  Si    17.948210   18.262050    1.144080
  O     15.137610   24.857260    3.517980
  O     17.616980   24.022840    3.347700
  H     17.029360   25.784000    0.120860
  H     17.607280   21.923730    1.783900
  Si    16.698130   25.292760    3.663080
  Si    17.939900   22.453300    3.249960
  O     19.508730   18.697540    0.998980
  O     19.482400   22.258190    3.563830
  H     17.029360   19.531960    0.828700
  O     17.616980   17.770800    2.639860
  O     17.039060   21.631070    4.302900
  Si    16.706440   31.163300    3.249960
  O     15.137610   27.407540    0.998980
  O     15.163940   30.968190    3.563830
  H     17.616980   28.241960    0.828700
  O     17.029360   26.480800    2.639860
  O     17.607280   30.341070    4.302900
  Si    24.877710   25.292760    3.663080
  Si    23.635940   22.453300    3.249960
  O     22.067110   18.697540    0.998980
  O     22.093440   22.258190    3.563830
  H     24.546480   19.531960    0.828700
  O     23.958860   17.770800    2.639860
  O     24.536780   21.631070    4.302900
  Si    23.627630   18.262050    1.144080
  H     26.438230   24.857260    3.517980
  O     23.958860   24.022840    3.347700
  H     23.968560   21.923730    1.783900
  Si    16.698130   26.972040    1.144080
  H     17.029360   32.732840    3.347700
  H     17.039060   30.633730    1.783900
  Si    13.858420   23.986260    3.763840
  Si    13.858420   30.074550    3.781470
  Si    13.858420   28.278540    1.244840
  H     13.858420   29.508400    0.225150
  O     13.858420   28.832500    2.770340
  Si    20.787920   21.364550    3.781470
  Si    20.787920   19.568540    1.244840
  H     20.787920   20.798400    0.225150
  O     20.787920   20.122500    2.770340
  Si    17.948210   18.262050    6.182080
  Si    16.706440   21.101500    5.768960
  O     15.137610   24.857260    8.555980
  O     15.163940   21.296610    6.082830
  O     17.616980   24.022840    8.385700
  O     17.029360   25.784000    5.158860
  O     17.607280   21.923730    6.821900
  Si    24.877710   26.972040    6.182080
  Si    23.635940   29.811500    5.768960
  H     22.067110   33.567270    8.555980
  O     22.093440   30.006610    6.082830
  H     24.546480   32.732840    8.385700
  O     24.536780   30.633730    6.821900
  Si    24.869400   31.163300    8.287960
  H     26.438230   27.407540    6.036980
  H     26.411900   30.968190    8.601830
  O     23.958860   28.241960    5.866700
  O     24.546480   26.480800    7.677860
  O     23.968560   30.341070    9.340900
  Si    16.698130   25.292760    8.701080
  Si    17.939900   22.453300    8.287960
  O     19.508730   18.697540    6.036980
  O     19.482400   22.258190    8.601830
  O     17.029360   19.531960    5.866700
  O     17.616980   17.770800    7.677860
  O     17.039060   21.631070    9.340900
  Si    16.706440   31.163300    8.287960
  O     15.137610   27.407540    6.036980
  O     15.163940   30.968190    8.601830
  O     17.616980   28.241960    5.866700
  O     17.029360   26.480800    7.677860
  O     17.607280   30.341070    9.340900
  Si    24.877710   25.292760    8.701080
  Si    23.635940   22.453300    8.287960
  O     22.067110   18.697540    6.036980
  O     22.093440   22.258190    8.601830
  O     24.546480   19.531960    5.866700
  O     23.958860   17.770800    7.677860
  O     24.536780   21.631070    9.340900
  Si    23.627630   18.262050    6.182080
  Si    24.869400   21.101500    5.768960
  H     26.438230   24.857260    8.555980
  H     26.411900   21.296610    6.082830
  O     23.958860   24.022840    8.385700
  O     24.546480   25.784000    5.158860
  O     23.968560   21.923730    6.821900
  Si    16.698130   26.972040    6.182080
  Si    17.939900   29.811500    5.768960
  H     19.508730   33.567270    8.555980
  O     19.482400   30.006610    6.082830
  H     17.029360   32.732840    8.385700
  O     17.039060   30.633730    6.821900
  Si    13.858420   22.190250    6.300470
  Si    13.858420   23.986260    8.801840
  O     13.858420   22.756400    7.782150
  O     13.858420   23.432300    5.289340
  Si    20.787920   30.900250    6.300470
  Si    20.787920   32.696260    8.801840
  O     20.787920   31.466400    7.782150
  Si    13.858420   30.074550    8.819470
  Si    13.858420   28.278540    6.282840
  O     13.858420   29.508400    5.263150
  O     13.858420   28.832500    7.808340
  Si    20.787920   21.364550    8.819470
  Si    20.787920   19.568540    6.282840
  O     20.787920   20.798400    5.263150
  O     20.787920   20.122500    7.808340
  Si     2.847440    3.681500   10.806960
  H      1.278610    7.437260   13.593980
  H      1.304940    3.876610   11.120830
  O      3.757980    6.602840   13.423700
  O      3.170360    8.364000   10.196860
  O      3.748280    4.503730   11.859900
  O      8.208110   16.147260   13.593980
  O     10.687480   15.312840   13.423700
  Si     9.768630   16.582750   13.739080
  O     12.552900   13.548190   13.639830
  O     10.687480    9.060800   12.715860
  O     10.109560   12.921070   14.378900
  Si     2.839130    7.872760   13.739080
  Si     4.080900    5.033300   13.325960
  H      5.649730    1.277540   11.074980
  O      5.623400    4.838190   13.639830
  H      3.170360    2.111960   10.904700
  Si     4.089210   16.582750   13.739080
  Si     2.847440   13.743300   13.325960
  H      1.278610    9.987540   11.074980
  H      1.304940   13.548190   13.639830
  O      3.757980   10.821960   10.904700
  O      3.170360    9.060800   12.715860
  O      3.748280   12.921070   14.378900
  Si    11.018710    7.872760   13.739080
  Si     9.776940    5.033300   13.325960
  H      8.208110    1.277540   11.074980
  O      8.234440    4.838190   13.639830
  H     10.687480    2.111960   10.904700
  O     10.677780    4.211070   14.378900
  Si    11.010400    3.681500   10.806960
  O     12.579230    7.437260   13.593980
  O     12.552900    3.876610   11.120830
  O     10.099860    6.602840   13.423700
  O     10.687480    8.364000   10.196860
  O     10.109560    4.503730   11.859900
  Si     2.839130    9.552040   11.220080
  Si     4.080900   12.391500   10.806960
  O      5.649730   16.147260   13.593980
  O      5.623400   12.586610   11.120830
  O      3.170360   15.312840   13.423700
  O      3.757980   17.074000   10.196860
  O      3.180060   13.213730   11.859900
  Si     6.928920   15.276260   13.839840
  O      6.928920   14.046400   12.820150
  Si     6.928920    3.944550   13.857470
  Si     6.928920    2.148540   11.320840
  O      6.928920    3.378400   10.301150
  O      6.928920    2.702500   12.846340
  O      3.170360    8.364000   15.234860
  Si    11.018710    9.552040   16.258080
  Si     9.776940   12.391500   15.844960
  O      8.234440   12.586610   16.158830
  O     10.099860   17.074000   15.234860
  O     12.579230    9.987540   16.112980
  O     10.099860   10.821960   15.942700
  H     10.687480    9.060800   17.753860
  H      1.278610    9.987540   16.112980
  O      3.757980   10.821960   15.942700
  H      3.170360    9.060800   17.753860
  H     10.687480    2.111960   15.942700
  Si    11.010400    3.681500   15.844960
  O     12.552900    3.876610   16.158830
  O     10.687480    8.364000   15.234860
  Si     2.839130    9.552040   16.258080
  Si     4.080900   12.391500   15.844960
  O      5.623400   12.586610   16.158830
  O      3.757980   17.074000   15.234860
  Si     6.928920   13.480250   16.376470
  H      6.928920   14.046400   17.858150
  O      6.928920   14.722300   15.365340
  Si    16.706440    3.681500   10.806960
  O     15.137610    7.437260   13.593980
  O     15.163940    3.876610   11.120830
  O     17.616980    6.602840   13.423700
  O     17.029360    8.364000   10.196860
  O     17.607280    4.503730   11.859900
  Si    24.877710    9.552040   11.220080
  Si    23.635940   12.391500   10.806960
  O     22.067110   16.147260   13.593980
  O     22.093440   12.586610   11.120830
  O     24.546480   15.312840   13.423700
  O     23.958860   17.074000   10.196860
  O     24.536780   13.213730   11.859900
  Si    23.627630   16.582750   13.739080
  Si    24.869400   13.743300   13.325960
  H     26.438230    9.987540   11.074980
  H     26.411900   13.548190   13.639830
  O     23.958860   10.821960   10.904700
  O     24.546480    9.060800   12.715860
  O     23.968560   12.921070   14.378900
  Si    16.698130    7.872760   13.739080
  Si    17.939900    5.033300   13.325960
  H     19.508730    1.277540   11.074980
  O     19.482400    4.838190   13.639830
  H     17.029360    2.111960   10.904700
  O     17.039060    4.211070   14.378900
  Si    17.948210   16.582750   13.739080
  Si    16.706440   13.743300   13.325960
  O     15.137610    9.987540   11.074980
  O     15.163940   13.548190   13.639830
  O     17.616980   10.821960   10.904700
  O     17.029360    9.060800   12.715860
  O     17.607280   12.921070   14.378900
  Si    24.877710    7.872760   13.739080
  Si    23.635940    5.033300   13.325960
  H     22.067110    1.277540   11.074980
  O     22.093440    4.838190   13.639830
  H     24.546480    2.111960   10.904700
  Si    24.869400    3.681500   10.806960
  H     26.438230    7.437260   13.593980
  H     26.411900    3.876610   11.120830
  O     23.958860    6.602840   13.423700
  O     24.546480    8.364000   10.196860
  O     23.968560    4.503730   11.859900
  Si    16.698130    9.552040   11.220080
  Si    17.939900   12.391500   10.806960
  O     19.508730   16.147260   13.593980
  O     19.482400   12.586610   11.120830
  O     17.029360   15.312840   13.423700
  O     17.616980   17.074000   10.196860
  O     17.039060   13.213730   11.859900
  Si    13.858420    4.770250   11.338470
  Si    13.858420    6.566260   13.839840
  O     13.858420    5.336400   12.820150
  O     13.858420    6.012300   10.327340
  Si    20.787920   13.480250   11.338470
  Si    20.787920   15.276260   13.839840
  O     20.787920   14.046400   12.820150
  O     20.787920   14.722300   10.327340
  Si    13.858420   12.654550   13.857470
  O     13.858420   11.412500   12.846340
  Si    20.787920    3.944550   13.857470
  Si    20.787920    2.148540   11.320840
  O     20.787920    3.378400   10.301150
  O     20.787920    2.702500   12.846340
  Si    16.706440    3.681500   15.844960
  O     15.163940    3.876610   16.158830
  O     17.029360    8.364000   15.234860
  Si    24.877710    9.552040   16.258080
  Si    23.635940   12.391500   15.844960
  O     22.093440   12.586610   16.158830
  O     23.958860   17.074000   15.234860
  H     26.438230    9.987540   16.112980
  O     23.958860   10.821960   15.942700
  H     24.546480    9.060800   17.753860
  H     17.029360    2.111960   15.942700
  O     15.137610    9.987540   16.112980
  O     17.616980   10.821960   15.942700
  H     17.029360    9.060800   17.753860
  O     24.546480    8.364000   15.234860
  Si    16.698130    9.552040   16.258080
  Si    17.939900   12.391500   15.844960
  O     19.482400   12.586610   16.158830
  O     17.616980   17.074000   15.234860
  Si    13.858420    4.770250   16.376470
  H     13.858420    5.336400   17.858150
  O     13.858420    6.012300   15.365340
  Si    20.787920   13.480250   16.376470
  H     20.787920   14.046400   17.858150
  O     20.787920   14.722300   15.365340
  Si    13.858420   10.858540   16.358840
  O     13.858420   12.088400   15.339150
  H     13.858420   11.412500   17.884340
  Si     4.089210   18.262050   11.220080
  Si     2.847440   21.101500   10.806960
  H      1.278610   24.857260   13.593980
  H      1.304940   21.296610   11.120830
  O      3.757980   24.022840   13.423700
  O      3.170360   25.784000   10.196860
  O      3.748280   21.923730   11.859900
  Si    11.018710   26.972040   11.220080
  Si     9.776940   29.811500   10.806960
  H      8.208110   33.567270   13.593980
  O      8.234440   30.006610   11.120830
  H     10.687480   32.732840   13.423700
  O     10.677780   30.633730   11.859900
  Si    11.010400   31.163300   13.325960
  O     12.579230   27.407540   11.074980
  O     12.552900   30.968190   13.639830
  O     10.099860   28.241960   10.904700
  O     10.687480   26.480800   12.715860
  O     10.109560   30.341070   14.378900
  Si     2.839130   25.292760   13.739080
  Si     4.080900   22.453300   13.325960
  O      5.649730   18.697540   11.074980
  O      5.623400   22.258190   13.639830
  O      3.170360   19.531960   10.904700
  O      3.757980   17.770800   12.715860
  O      3.180060   21.631070   14.378900
  Si     2.847440   31.163300   13.325960
  H      1.278610   27.407540   11.074980
  H      1.304940   30.968190   13.639830
  O      3.757980   28.241960   10.904700
  O      3.170360   26.480800   12.715860
  O      3.748280   30.341070   14.378900
  Si    11.018710   25.292760   13.739080
  Si     9.776940   22.453300   13.325960
  O      8.208110   18.697540   11.074980
  O      8.234440   22.258190   13.639830
  O     10.687480   19.531960   10.904700
  O     10.099860   17.770800   12.715860
  O     10.677780   21.631070   14.378900
  Si    11.010400   21.101500   10.806960
  O     12.579230   24.857260   13.593980
  O     12.552900   21.296610   11.120830
  O     10.099860   24.022840   13.423700
  O     10.687480   25.784000   10.196860
  O     10.109560   21.923730   11.859900
  Si     2.839130   26.972040   11.220080
  Si     4.080900   29.811500   10.806960
  H      5.649730   33.567270   13.593980
  O      5.623400   30.006610   11.120830
  H      3.170360   32.732840   13.423700
  O      3.180060   30.633730   11.859900
  Si     6.928920   30.900250   11.338470
  Si     6.928920   32.696260   13.839840
  O      6.928920   31.466400   12.820150
  O      6.928920   32.142300   10.327340
  Si     6.928920   21.364550   13.857470
  Si     6.928920   19.568540   11.320840
  O      6.928920   20.798400   10.301150
  O      6.928920   20.122500   12.846340
  Si     4.089210   18.262050   16.258080
  Si     2.847440   21.101500   15.844960
  H      1.304940   21.296610   16.158830
  O      3.170360   25.784000   15.234860
  Si    11.018710   26.972040   16.258080
  Si     9.776940   29.811500   15.844960
  O      8.234440   30.006610   16.158830
  O     12.579230   27.407540   16.112980
  O     10.099860   28.241960   15.942700
  H     10.687480   26.480800   17.753860
  O      5.649730   18.697540   16.112980
  O      3.170360   19.531960   15.942700
  H      3.757980   17.770800   17.753860
  H      1.278610   27.407540   16.112980
  O      3.757980   28.241960   15.942700
  H      3.170360   26.480800   17.753860
  O      8.208110   18.697540   16.112980
  O     10.687480   19.531960   15.942700
  H     10.099860   17.770800   17.753860
  Si     9.768630   18.262050   16.258080
  Si    11.010400   21.101500   15.844960
  O     12.552900   21.296610   16.158830
  O     10.687480   25.784000   15.234860
  Si     2.839130   26.972040   16.258080
  Si     4.080900   29.811500   15.844960
  O      5.623400   30.006610   16.158830
  Si     6.928920   30.900250   16.376470
  H      6.928920   31.466400   17.858150
  O      6.928920   32.142300   15.365340
  Si     6.928920   19.568540   16.358840
  O      6.928920   20.798400   15.339150
  H      6.928920   20.122500   17.884340
  Si    17.948210   18.262050   11.220080
  Si    16.706440   21.101500   10.806960
  O     15.137610   24.857260   13.593980
  O     15.163940   21.296610   11.120830
  O     17.616980   24.022840   13.423700
  O     17.029360   25.784000   10.196860
  O     17.607280   21.923730   11.859900
  Si    24.877710   26.972040   11.220080
  Si    23.635940   29.811500   10.806960
  H     22.067110   33.567270   13.593980
  O     22.093440   30.006610   11.120830
  H     24.546480   32.732840   13.423700
  O     24.536780   30.633730   11.859900
  Si    24.869400   31.163300   13.325960
  H     26.438230   27.407540   11.074980
  H     26.411900   30.968190   13.639830
  O     23.958860   28.241960   10.904700
  O     24.546480   26.480800   12.715860
  O     23.968560   30.341070   14.378900
  Si    16.698130   25.292760   13.739080
  Si    17.939900   22.453300   13.325960
  O     19.508730   18.697540   11.074980
  O     19.482400   22.258190   13.639830
  O     17.029360   19.531960   10.904700
  O     17.616980   17.770800   12.715860
  O     17.039060   21.631070   14.378900
  Si    16.706440   31.163300   13.325960
  O     15.137610   27.407540   11.074980
  O     15.163940   30.968190   13.639830
  O     17.616980   28.241960   10.904700
  O     17.029360   26.480800   12.715860
  O     17.607280   30.341070   14.378900
  Si    24.877710   25.292760   13.739080
  Si    23.635940   22.453300   13.325960
  O     22.067110   18.697540   11.074980
  O     22.093440   22.258190   13.639830
  O     24.546480   19.531960   10.904700
  O     23.958860   17.770800   12.715860
  O     24.536780   21.631070   14.378900
  Si    23.627630   18.262050   11.220080
  Si    24.869400   21.101500   10.806960
  H     26.438230   24.857260   13.593980
  H     26.411900   21.296610   11.120830
  O     23.958860   24.022840   13.423700
  O     24.546480   25.784000   10.196860
  O     23.968560   21.923730   11.859900
  Si    16.698130   26.972040   11.220080
  Si    17.939900   29.811500   10.806960
  H     19.508730   33.567270   13.593980
  O     19.482400   30.006610   11.120830
  H     17.029360   32.732840   13.423700
  O     17.039060   30.633730   11.859900
  Si    13.858420   22.190250   11.338470
  Si    13.858420   23.986260   13.839840
  O     13.858420   22.756400   12.820150
  O     13.858420   23.432300   10.327340
  Si    20.787920   30.900250   11.338470
  Si    20.787920   32.696260   13.839840
  O     20.787920   31.466400   12.820150
  O     20.787920   32.142300   10.327340
  Si    13.858420   30.074550   13.857470
  Si    13.858420   28.278540   11.320840
  O     13.858420   29.508400   10.301150
  O     13.858420   28.832500   12.846340
  Si    20.787920   21.364550   13.857470
  Si    20.787920   19.568540   11.320840
  O     20.787920   20.798400   10.301150
  O     20.787920   20.122500   12.846340
  Si    17.948210   18.262050   16.258080
  Si    16.706440   21.101500   15.844960
  O     15.163940   21.296610   16.158830
  O     17.029360   25.784000   15.234860
  Si    24.877710   26.972040   16.258080
  Si    23.635940   29.811500   15.844960
  O     22.093440   30.006610   16.158830
  H     26.438230   27.407540   16.112980
  O     23.958860   28.241960   15.942700
  H     24.546480   26.480800   17.753860
  O     19.508730   18.697540   16.112980
  O     17.029360   19.531960   15.942700
  H     17.616980   17.770800   17.753860
  O     15.137610   27.407540   16.112980
  O     17.616980   28.241960   15.942700
  H     17.029360   26.480800   17.753860
  O     22.067110   18.697540   16.112980
  O     24.546480   19.531960   15.942700
  H     23.958860   17.770800   17.753860
  Si    23.627630   18.262050   16.258080
  Si    24.869400   21.101500   15.844960
  H     26.411900   21.296610   16.158830
  O     24.546480   25.784000   15.234860
  Si    16.698130   26.972040   16.258080
  Si    17.939900   29.811500   15.844960
  O     19.482400   30.006610   16.158830
  Si    13.858420   22.190250   16.376470
  H     13.858420   22.756400   17.858150
  O     13.858420   23.432300   15.365340
  Si    20.787920   30.900250   16.376470
  H     20.787920   31.466400   17.858150
  O     20.787920   32.142300   15.365340
  Si    13.858420   28.278540   16.358840
  O     13.858420   29.508400   15.339150
  H     13.858420   28.832500   17.884340
  Si    20.787920   19.568540   16.358840
  O     20.787920   20.798400   15.339150
  H     20.787920   20.122500   17.884340
  H     24.424530   30.543690   16.771470
  H     17.151310   30.543690   16.771470
  H     10.565530   30.543690   16.771470
  H      3.292310   30.543690   16.771470
  H      3.292310   13.123690   16.771470
  H     10.221810   21.833690   16.771470
  H      3.636030   21.833690   16.771470
  H     24.080810   21.833690   16.771470
  H     17.495030   21.833690   16.771470
  H     24.424530   13.123690   16.771470
  H     17.151310   13.123690   16.771470
  H     10.565530   13.123690   16.771470
  H      3.292310    4.301110   14.252470
  H     10.221810    4.413690   16.771470
  H     17.495030    4.413690   16.771470
  H      6.928920    3.439920   15.184780
  H     24.424530    4.301110   14.252470
  H     20.787920    3.439920   15.184780
  H     20.787920    2.872140    2.850690
  H     24.626110    8.937510    2.757870
  H     20.787920   31.972660    5.369690
  H     23.937970   30.301530    4.470860
  H     24.626110   26.357510    2.757870
  H     13.858420   22.884330    2.868210
  H     20.787920   14.174330    2.868210
  H      6.928920    2.872140    2.850690
  H     13.858420    5.464330    2.868210
  H      3.090730    8.937510    2.757870
  H      6.928920   14.174330    2.868210
  H      3.090730   26.357510    2.757870
  H      3.778870   30.301530    4.470860
  H      6.928920   31.972660    5.369690

----------------------------
CARTESIAN COORDINATES (A.U.)
----------------------------
  NO LB      ZA    FRAG     MASS         X           Y           Z
   0 H     1.0000    0     1.008   22.514568   29.903572   15.727747
   1 Al    3.0000    0    26.982   20.882695   25.981824   15.544277
   2 O     6.0000    0    15.999   20.705614   29.374362   15.732076
   3 O     6.0000    0    15.999   23.962684   26.057630   16.423546
   4 O     6.0000    0    15.999   20.389831   25.124376   12.545359
   5 O     6.0000    0    15.999   18.778071   24.750817   17.601907
   6 Si    4.0000    0    28.086   18.374391   31.495054   16.476231
   7 Si    4.0000    0    28.086   26.248275   23.966391   16.676193
   8 Si    4.0000    0    28.086   18.441066   23.436875   20.405127
   9 Si    4.0000    0    28.086   18.494908   23.389537   10.821373
  10 O     6.0000    0    15.999   15.511080   30.513899   16.168459
  11 Si    4.0000    0    28.086   13.093761   28.867948   16.633067
  12 O     6.0000    0    15.999   19.085969   33.581945   14.509053
  13 Si    4.0000    0    28.086   18.460035   34.510273   11.682438
  14 O     6.0000    0    15.999   19.085969   32.265184   19.269273
  15 Si    4.0000    0    28.086   18.460035   34.510273   21.202878
  16 O     6.0000    0    15.999   28.655694   25.602369   16.255103
  17 Si    4.0000    0    28.086   31.570596   25.971073   15.661975
  18 O     6.0000    0    15.999   26.188618   21.566500   14.755624
  19 Si    4.0000    0    28.086   26.188618   20.519667   11.872847
  20 O     6.0000    0    15.999   26.188618   22.843765   19.466352
  21 Si    4.0000    0    28.086   26.188618   20.519667   21.393287
  22 O     6.0000    0    15.999   19.085969   20.450541   20.606897
  23 Si    4.0000    0    28.086   20.822344   18.050740   21.202878
  24 O     6.0000    0    15.999   20.178080   24.970331   22.411963
  25 Si    4.0000    0    28.086   20.806641   25.971073   25.182415
  26 O     6.0000    0    15.999   15.560836   23.785246   21.015323
  27 Si    4.0000    0    28.086   13.093761   25.473981   21.426603
  28 O     6.0000    0    15.999   19.104300   24.417284    8.131303
  29 Si    4.0000    0    28.086   20.806641   25.971073    6.141534
  30 O     6.0000    0    15.999   19.085969   20.450541   11.086456
  31 Si    4.0000    0    28.086   20.822344   18.050740   11.682438
  32 O     6.0000    0    15.999   15.560836   23.785246   11.494883
  33 Si    4.0000    0    28.086   13.093761   25.473981   11.906163
  34 O     6.0000    0    15.999   23.771300   18.873715   11.408239
  35 O     6.0000    0    15.999   13.093761   26.543849   14.706132
  36 O     6.0000    0    15.999   23.771300   18.873715   20.928679
  37 O     6.0000    0    15.999   13.093761   27.821115   19.515844
  38 H     1.0000    0     1.008   20.178080   24.970331    3.371082
  39 H     1.0000    0     1.008    2.416223   14.054385    6.648019
  40 O     6.0000    0    15.999    7.101553   12.477559    6.326236
  41 H     1.0000    0     1.008    7.083223    8.510816    3.371082
  42 Si    4.0000    0    28.086   20.822344   18.050740    2.161998
  43 O     6.0000    0    15.999   15.511080   30.513899    6.648019
  44 O     6.0000    0    15.999   20.196410   28.937074    6.326236
  45 H     1.0000    0     1.008   19.085969   32.265184    0.228392
  46 Si    4.0000    0    28.086   18.460035   31.336856    6.922218
  47 O     6.0000    0    15.999   23.771300   18.873715    1.887799
  48 O     6.0000    0    15.999   23.721543   25.602369    6.734663
  49 H     1.0000    0     1.008   19.085969   20.450541    1.566016
  50 O     6.0000    0    15.999   20.196410   17.122431    4.988612
  51 Si    4.0000    0    28.086    5.365178   14.877360    6.922218
  52 Si    4.0000    0    28.086    7.711783    9.511559    6.141534
  53 O     6.0000    0    15.999   10.626686    9.142854    6.734663
  54 O     6.0000    0    15.999    6.009442    7.957769    8.131303
  55 Si    4.0000    0    28.086    7.727487   31.336856    6.922218
  56 Si    4.0000    0    28.086    5.380882   25.971073    6.141534
  57 H     1.0000    0     1.008    2.465979   25.602369    6.734663
  58 O     6.0000    0    15.999    7.083223   24.417284    8.131303
  59 Si    4.0000    0    28.086   20.822344   14.877360    6.922218
  60 Si    4.0000    0    28.086   18.475739    9.511559    6.141534
  61 O     6.0000    0    15.999   15.560836    9.142854    6.734663
  62 O     6.0000    0    15.999   20.178080    7.957769    8.131303
  63 O     6.0000    0    15.999   23.771300   14.054385    6.648019
  64 O     6.0000    0    15.999   19.085969   12.477559    6.326236
  65 H     1.0000    0     1.008   20.196410   15.805669    0.228392
  66 H     1.0000    0     1.008   19.104300    8.510816    3.371082
  67 O     6.0000    0    15.999   10.676442   30.513899    6.648019
  68 O     6.0000    0    15.999    5.991112   28.937074    6.326236
  69 H     1.0000    0     1.008    7.101553   32.265184    0.228392
  70 H     1.0000    0     1.008    6.009442   24.970331    3.371082
  71 Si    4.0000    0    28.086   13.093761   28.867948    7.112627
  72 Si    4.0000    0    28.086   13.093761    7.454119    7.145943
  73 Si    4.0000    0    28.086    5.380882    6.957027   10.901754
  74 H     1.0000    0     1.008    2.416223   14.054385   16.168459
  75 H     1.0000    0     1.008    2.465979    7.325731   11.494883
  76 O     6.0000    0    15.999    7.101553   12.477559   15.846676
  77 O     6.0000    0    15.999    5.991112   15.805669    9.748833
  78 O     6.0000    0    15.999    7.083223    8.510816   12.891523
  79 O     6.0000    0    15.999   19.085969   32.265184    9.748833
  80 O     6.0000    0    15.999   20.196410   17.122431   14.509053
  81 Si    4.0000    0    28.086    5.365178   14.877360   16.442658
  82 Si    4.0000    0    28.086    7.711783    9.511559   15.661975
  83 H     1.0000    0     1.008   10.676442    2.414201   11.408239
  84 O     6.0000    0    15.999   10.626686    9.142854   16.255103
  85 H     1.0000    0     1.008    5.991112    3.991026   11.086456
  86 O     6.0000    0    15.999    6.009442    7.957769   17.651743
  87 Si    4.0000    0    28.086    7.727487   31.336856   16.442658
  88 Si    4.0000    0    28.086    5.380882   25.971073   15.661975
  89 H     1.0000    0     1.008    2.416223   18.873715   11.408239
  90 H     1.0000    0     1.008    2.465979   25.602369   16.255103
  91 O     6.0000    0    15.999    7.101553   20.450541   11.086456
  92 O     6.0000    0    15.999    5.991112   17.122431   14.509053
  93 O     6.0000    0    15.999    7.083223   24.417284   17.651743
  94 Si    4.0000    0    28.086   20.822344   14.877360   16.442658
  95 Si    4.0000    0    28.086   18.475739    9.511559   15.661975
  96 H     1.0000    0     1.008   15.511080    2.414201   11.408239
  97 O     6.0000    0    15.999   15.560836    9.142854   16.255103
  98 H     1.0000    0     1.008   20.196410    3.991026   11.086456
  99 O     6.0000    0    15.999   20.178080    7.957769   17.651743
 100 Si    4.0000    0    28.086   20.806641    6.957027   10.901754
 101 O     6.0000    0    15.999   23.771300   14.054385   16.168459
 102 O     6.0000    0    15.999   23.721543    7.325731   11.494883
 103 O     6.0000    0    15.999   19.085969   12.477559   15.846676
 104 O     6.0000    0    15.999   20.196410   15.805669    9.748833
 105 O     6.0000    0    15.999   19.104300    8.510816   12.891523
 106 Si    4.0000    0    28.086    5.365178   18.050740   11.682438
 107 Si    4.0000    0    28.086    7.711783   23.416541   10.901754
 108 O     6.0000    0    15.999   10.676442   30.513899   16.168459
 109 O     6.0000    0    15.999   10.626686   23.785246   11.494883
 110 O     6.0000    0    15.999    5.991112   28.937074   15.846676
 111 O     6.0000    0    15.999    7.101553   32.265184    9.748833
 112 O     6.0000    0    15.999    6.009442   24.970331   12.891523
 113 O     6.0000    0    15.999   13.093761   27.821115    9.995404
 114 Si    4.0000    0    28.086   13.093761    7.454119   16.666383
 115 Si    4.0000    0    28.086   13.093761    4.060152   11.872847
 116 O     6.0000    0    15.999   13.093761    6.384251    9.945912
 117 O     6.0000    0    15.999   13.093761    5.106985   14.755624
 118 O     6.0000    0    15.999   28.605937   14.054385    6.648019
 119 O     6.0000    0    15.999   33.291268   12.477559    6.326236
 120 H     1.0000    0     1.008   32.180827   15.805669    0.228392
 121 H     1.0000    0     1.008   33.272937    8.510816    3.371082
 122 O     6.0000    0    15.999   41.700794   30.513899    6.648019
 123 O     6.0000    0    15.999   46.386125   28.937074    6.326236
 124 H     1.0000    0     1.008   45.275684   32.265184    0.228392
 125 H     1.0000    0     1.008   46.367794   24.970331    3.371082
 126 Si    4.0000    0    28.086   44.649750   31.336856    6.922218
 127 Si    4.0000    0    28.086   46.996355   25.971073    6.141534
 128 H     1.0000    0     1.008   49.911258   25.602369    6.734663
 129 O     6.0000    0    15.999   45.294014   24.417284    8.131303
 130 Si    4.0000    0    28.086   31.554893   14.877360    6.922218
 131 Si    4.0000    0    28.086   33.901498    9.511559    6.141534
 132 O     6.0000    0    15.999   36.816400    9.142854    6.734663
 133 O     6.0000    0    15.999   32.199157    7.957769    8.131303
 134 Si    4.0000    0    28.086   33.917201   31.336856    6.922218
 135 Si    4.0000    0    28.086   31.570596   25.971073    6.141534
 136 O     6.0000    0    15.999   28.605937   18.873715    1.887799
 137 O     6.0000    0    15.999   28.655694   25.602369    6.734663
 138 H     1.0000    0     1.008   33.291268   20.450541    1.566016
 139 O     6.0000    0    15.999   32.180827   17.122431    4.988612
 140 O     6.0000    0    15.999   33.272937   24.417284    8.131303
 141 Si    4.0000    0    28.086   47.012059   14.877360    6.922218
 142 Si    4.0000    0    28.086   44.665454    9.511559    6.141534
 143 O     6.0000    0    15.999   41.750551    9.142854    6.734663
 144 O     6.0000    0    15.999   46.367794    7.957769    8.131303
 145 H     1.0000    0     1.008   49.961014   14.054385    6.648019
 146 O     6.0000    0    15.999   45.275684   12.477559    6.326236
 147 H     1.0000    0     1.008   45.294014    8.510816    3.371082
 148 Si    4.0000    0    28.086   31.554893   18.050740    2.161998
 149 O     6.0000    0    15.999   36.866157   30.513899    6.648019
 150 O     6.0000    0    15.999   32.180827   28.937074    6.326236
 151 H     1.0000    0     1.008   33.291268   32.265184    0.228392
 152 H     1.0000    0     1.008   32.199157   24.970331    3.371082
 153 Si    4.0000    0    28.086   26.188618   12.408433    7.112627
 154 Si    4.0000    0    28.086   39.283476   28.867948    7.112627
 155 Si    4.0000    0    28.086   26.188618   23.913634    7.145943
 156 Si    4.0000    0    28.086   26.188618   20.519667    2.352407
 157 H     1.0000    0     1.008   26.188618   22.843765    0.425472
 158 O     6.0000    0    15.999   26.188618   21.566500    5.235184
 159 Si    4.0000    0    28.086   39.283476    7.454119    7.145943
 160 Si    4.0000    0    28.086   31.570596    6.957027   10.901754
 161 O     6.0000    0    15.999   28.605937   14.054385   16.168459
 162 O     6.0000    0    15.999   28.655694    7.325731   11.494883
 163 O     6.0000    0    15.999   33.291268   12.477559   15.846676
 164 O     6.0000    0    15.999   32.180827   15.805669    9.748833
 165 O     6.0000    0    15.999   33.272937    8.510816   12.891523
 166 Si    4.0000    0    28.086   47.012059   18.050740   11.682438
 167 Si    4.0000    0    28.086   44.665454   23.416541   10.901754
 168 O     6.0000    0    15.999   41.700794   30.513899   16.168459
 169 O     6.0000    0    15.999   41.750551   23.785246   11.494883
 170 O     6.0000    0    15.999   46.386125   28.937074   15.846676
 171 O     6.0000    0    15.999   45.275684   32.265184    9.748833
 172 O     6.0000    0    15.999   46.367794   24.970331   12.891523
 173 Si    4.0000    0    28.086   44.649750   31.336856   16.442658
 174 Si    4.0000    0    28.086   46.996355   25.971073   15.661975
 175 H     1.0000    0     1.008   49.961014   18.873715   11.408239
 176 H     1.0000    0     1.008   49.911258   25.602369   16.255103
 177 O     6.0000    0    15.999   45.275684   20.450541   11.086456
 178 O     6.0000    0    15.999   46.386125   17.122431   14.509053
 179 O     6.0000    0    15.999   45.294014   24.417284   17.651743
 180 Si    4.0000    0    28.086   31.554893   14.877360   16.442658
 181 Si    4.0000    0    28.086   33.901498    9.511559   15.661975
 182 H     1.0000    0     1.008   36.866157    2.414201   11.408239
 183 O     6.0000    0    15.999   36.816400    9.142854   16.255103
 184 H     1.0000    0     1.008   32.180827    3.991026   11.086456
 185 O     6.0000    0    15.999   32.199157    7.957769   17.651743
 186 Si    4.0000    0    28.086   33.917201   31.336856   16.442658
 187 O     6.0000    0    15.999   28.605937   18.873715   11.408239
 188 O     6.0000    0    15.999   33.291268   20.450541   11.086456
 189 O     6.0000    0    15.999   32.180827   17.122431   14.509053
 190 O     6.0000    0    15.999   33.272937   24.417284   17.651743
 191 Si    4.0000    0    28.086   47.012059   14.877360   16.442658
 192 Si    4.0000    0    28.086   44.665454    9.511559   15.661975
 193 H     1.0000    0     1.008   41.700794    2.414201   11.408239
 194 O     6.0000    0    15.999   41.750551    9.142854   16.255103
 195 H     1.0000    0     1.008   46.386125    3.991026   11.086456
 196 O     6.0000    0    15.999   46.367794    7.957769   17.651743
 197 Si    4.0000    0    28.086   46.996355    6.957027   10.901754
 198 H     1.0000    0     1.008   49.961014   14.054385   16.168459
 199 H     1.0000    0     1.008   49.911258    7.325731   11.494883
 200 O     6.0000    0    15.999   45.275684   12.477559   15.846676
 201 O     6.0000    0    15.999   46.386125   15.805669    9.748833
 202 O     6.0000    0    15.999   45.294014    8.510816   12.891523
 203 Si    4.0000    0    28.086   31.554893   18.050740   11.682438
 204 Si    4.0000    0    28.086   33.901498   23.416541   10.901754
 205 O     6.0000    0    15.999   36.866157   30.513899   16.168459
 206 O     6.0000    0    15.999   36.816400   23.785246   11.494883
 207 O     6.0000    0    15.999   32.180827   28.937074   15.846676
 208 O     6.0000    0    15.999   33.291268   32.265184    9.748833
 209 O     6.0000    0    15.999   32.199157   24.970331   12.891523
 210 Si    4.0000    0    28.086   26.188618    9.014466   11.906163
 211 Si    4.0000    0    28.086   26.188618   12.408433   16.633067
 212 O     6.0000    0    15.999   26.188618   10.084335   14.706132
 213 O     6.0000    0    15.999   26.188618   11.361600    9.995404
 214 Si    4.0000    0    28.086   39.283476   25.473981   11.906163
 215 Si    4.0000    0    28.086   39.283476   28.867948   16.633067
 216 O     6.0000    0    15.999   39.283476   26.543849   14.706132
 217 O     6.0000    0    15.999   39.283476   27.821115    9.995404
 218 O     6.0000    0    15.999   26.188618   22.843765    9.945912
 219 Si    4.0000    0    28.086   39.283476    7.454119   16.666383
 220 Si    4.0000    0    28.086   39.283476    4.060152   11.872847
 221 O     6.0000    0    15.999   39.283476    6.384251    9.945912
 222 O     6.0000    0    15.999   39.283476    5.106985   14.755624
 223 Si    4.0000    0    28.086    7.727487   34.510273    2.161998
 224 H     1.0000    0     1.008    2.416223   46.973414    6.648019
 225 O     6.0000    0    15.999    7.101553   45.396589    6.326236
 226 H     1.0000    0     1.008    7.083223   41.429846    3.371082
 227 Si    4.0000    0    28.086   20.822344   50.969769    2.161998
 228 H     1.0000    0     1.008   20.196410   61.856103    6.326236
 229 H     1.0000    0     1.008   20.178080   57.889360    3.371082
 230 Si    4.0000    0    28.086   20.806641   58.890102    6.141534
 231 O     6.0000    0    15.999   23.771300   51.792745    1.887799
 232 O     6.0000    0    15.999   23.721543   58.521398    6.734663
 233 H     1.0000    0     1.008   19.085969   53.369570    1.566016
 234 O     6.0000    0    15.999   20.196410   50.041460    4.988612
 235 O     6.0000    0    15.999   19.104300   57.336313    8.131303
 236 Si    4.0000    0    28.086    5.365178   47.796390    6.922218
 237 Si    4.0000    0    28.086    7.711783   42.430588    6.141534
 238 O     6.0000    0    15.999   10.676442   35.333230    1.887799
 239 O     6.0000    0    15.999   10.626686   42.061883    6.734663
 240 H     1.0000    0     1.008    5.991112   36.910055    1.566016
 241 O     6.0000    0    15.999    7.101553   33.581945    4.988612
 242 O     6.0000    0    15.999    6.009442   40.876798    8.131303
 243 Si    4.0000    0    28.086   20.822344   47.796390    6.922218
 244 Si    4.0000    0    28.086   18.475739   42.430588    6.141534
 245 O     6.0000    0    15.999   15.511080   35.333230    1.887799
 246 O     6.0000    0    15.999   15.560836   42.061883    6.734663
 247 H     1.0000    0     1.008   20.196410   36.910055    1.566016
 248 O     6.0000    0    15.999   19.085969   33.581945    4.988612
 249 O     6.0000    0    15.999   20.178080   40.876798    8.131303
 250 Si    4.0000    0    28.086   18.460035   34.510273    2.161998
 251 O     6.0000    0    15.999   23.771300   46.973414    6.648019
 252 O     6.0000    0    15.999   19.085969   45.396589    6.326236
 253 H     1.0000    0     1.008   20.196410   48.724699    0.228392
 254 H     1.0000    0     1.008   19.104300   41.429846    3.371082
 255 Si    4.0000    0    28.086   13.093761   40.373148    7.145943
 256 Si    4.0000    0    28.086   13.093761   36.979181    2.352407
 257 H     1.0000    0     1.008   13.093761   39.303280    0.425472
 258 O     6.0000    0    15.999   13.093761   38.026014    5.235184
 259 Si    4.0000    0    28.086    7.727487   34.510273   11.682438
 260 Si    4.0000    0    28.086    5.380882   39.876056   10.901754
 261 H     1.0000    0     1.008    2.416223   46.973414   16.168459
 262 H     1.0000    0     1.008    2.465979   40.244760   11.494883
 263 O     6.0000    0    15.999    7.101553   45.396589   15.846676
 264 O     6.0000    0    15.999    5.991112   48.724699    9.748833
 265 O     6.0000    0    15.999    7.083223   41.429846   12.891523
 266 Si    4.0000    0    28.086   20.822344   50.969769   11.682438
 267 Si    4.0000    0    28.086   18.475739   56.335571   10.901754
 268 H     1.0000    0     1.008   15.511080   63.432947   16.168459
 269 O     6.0000    0    15.999   15.560836   56.704275   11.494883
 270 H     1.0000    0     1.008   20.196410   61.856103   15.846676
 271 O     6.0000    0    15.999   20.178080   57.889360   12.891523
 272 Si    4.0000    0    28.086   20.806641   58.890102   15.661975
 273 O     6.0000    0    15.999   23.771300   51.792745   11.408239
 274 O     6.0000    0    15.999   23.721543   58.521398   16.255103
 275 O     6.0000    0    15.999   19.085969   53.369570   11.086456
 276 O     6.0000    0    15.999   20.196410   50.041460   14.509053
 277 O     6.0000    0    15.999   19.104300   57.336313   17.651743
 278 Si    4.0000    0    28.086    5.365178   47.796390   16.442658
 279 Si    4.0000    0    28.086    7.711783   42.430588   15.661975
 280 O     6.0000    0    15.999   10.676442   35.333230   11.408239
 281 O     6.0000    0    15.999   10.626686   42.061883   16.255103
 282 O     6.0000    0    15.999    5.991112   36.910055   11.086456
 283 O     6.0000    0    15.999    7.101553   33.581945   14.509053
 284 O     6.0000    0    15.999    6.009442   40.876798   17.651743
 285 Si    4.0000    0    28.086    5.380882   58.890102   15.661975
 286 H     1.0000    0     1.008    2.416223   51.792745   11.408239
 287 H     1.0000    0     1.008    2.465979   58.521398   16.255103
 288 O     6.0000    0    15.999    7.101553   53.369570   11.086456
 289 O     6.0000    0    15.999    5.991112   50.041460   14.509053
 290 O     6.0000    0    15.999    7.083223   57.336313   17.651743
 291 Si    4.0000    0    28.086   20.822344   47.796390   16.442658
 292 Si    4.0000    0    28.086   18.475739   42.430588   15.661975
 293 O     6.0000    0    15.999   15.511080   35.333230   11.408239
 294 O     6.0000    0    15.999   15.560836   42.061883   16.255103
 295 O     6.0000    0    15.999   20.196410   36.910055   11.086456
 296 O     6.0000    0    15.999   20.178080   40.876798   17.651743
 297 Si    4.0000    0    28.086   20.806641   39.876056   10.901754
 298 O     6.0000    0    15.999   23.771300   46.973414   16.168459
 299 O     6.0000    0    15.999   23.721543   40.244760   11.494883
 300 O     6.0000    0    15.999   19.085969   45.396589   15.846676
 301 O     6.0000    0    15.999   20.196410   48.724699    9.748833
 302 O     6.0000    0    15.999   19.104300   41.429846   12.891523
 303 Si    4.0000    0    28.086    5.365178   50.969769   11.682438
 304 Si    4.0000    0    28.086    7.711783   56.335571   10.901754
 305 H     1.0000    0     1.008   10.676442   63.432947   16.168459
 306 O     6.0000    0    15.999   10.626686   56.704275   11.494883
 307 H     1.0000    0     1.008    5.991112   61.856103   15.846676
 308 O     6.0000    0    15.999    6.009442   57.889360   12.891523
 309 Si    4.0000    0    28.086   13.093761   58.393010   11.906163
 310 Si    4.0000    0    28.086   13.093761   61.786977   16.633067
 311 O     6.0000    0    15.999   13.093761   59.462878   14.706132
 312 Si    4.0000    0    28.086   13.093761   40.373148   16.666383
 313 Si    4.0000    0    28.086   13.093761   36.979181   11.872847
 314 O     6.0000    0    15.999   13.093761   39.303280    9.945912
 315 O     6.0000    0    15.999   13.093761   38.026014   14.755624
 316 Si    4.0000    0    28.086   33.917201   34.510273    2.161998
 317 O     6.0000    0    15.999   28.605937   46.973414    6.648019
 318 O     6.0000    0    15.999   33.291268   45.396589    6.326236
 319 H     1.0000    0     1.008   32.180827   48.724699    0.228392
 320 H     1.0000    0     1.008   33.272937   41.429846    3.371082
 321 Si    4.0000    0    28.086   31.554893   47.796390    6.922218
 322 Si    4.0000    0    28.086   33.901498   42.430588    6.141534
 323 O     6.0000    0    15.999   36.866157   35.333230    1.887799
 324 O     6.0000    0    15.999   36.816400   42.061883    6.734663
 325 H     1.0000    0     1.008   32.180827   36.910055    1.566016
 326 O     6.0000    0    15.999   33.291268   33.581945    4.988612
 327 O     6.0000    0    15.999   32.199157   40.876798    8.131303
 328 Si    4.0000    0    28.086   31.570596   58.890102    6.141534
 329 O     6.0000    0    15.999   28.605937   51.792745    1.887799
 330 O     6.0000    0    15.999   28.655694   58.521398    6.734663
 331 H     1.0000    0     1.008   33.291268   53.369570    1.566016
 332 O     6.0000    0    15.999   32.180827   50.041460    4.988612
 333 O     6.0000    0    15.999   33.272937   57.336313    8.131303
 334 Si    4.0000    0    28.086   47.012059   47.796390    6.922218
 335 Si    4.0000    0    28.086   44.665454   42.430588    6.141534
 336 O     6.0000    0    15.999   41.700794   35.333230    1.887799
 337 O     6.0000    0    15.999   41.750551   42.061883    6.734663
 338 H     1.0000    0     1.008   46.386125   36.910055    1.566016
 339 O     6.0000    0    15.999   45.275684   33.581945    4.988612
 340 O     6.0000    0    15.999   46.367794   40.876798    8.131303
 341 Si    4.0000    0    28.086   44.649750   34.510273    2.161998
 342 H     1.0000    0     1.008   49.961014   46.973414    6.648019
 343 O     6.0000    0    15.999   45.275684   45.396589    6.326236
 344 H     1.0000    0     1.008   45.294014   41.429846    3.371082
 345 Si    4.0000    0    28.086   31.554893   50.969769    2.161998
 346 H     1.0000    0     1.008   32.180827   61.856103    6.326236
 347 H     1.0000    0     1.008   32.199157   57.889360    3.371082
 348 Si    4.0000    0    28.086   26.188618   45.327462    7.112627
 349 Si    4.0000    0    28.086   26.188618   56.832663    7.145943
 350 Si    4.0000    0    28.086   26.188618   53.438696    2.352407
 351 H     1.0000    0     1.008   26.188618   55.762795    0.425472
 352 O     6.0000    0    15.999   26.188618   54.485529    5.235184
 353 Si    4.0000    0    28.086   39.283476   40.373148    7.145943
 354 Si    4.0000    0    28.086   39.283476   36.979181    2.352407
 355 H     1.0000    0     1.008   39.283476   39.303280    0.425472
 356 O     6.0000    0    15.999   39.283476   38.026014    5.235184
 357 Si    4.0000    0    28.086   33.917201   34.510273   11.682438
 358 Si    4.0000    0    28.086   31.570596   39.876056   10.901754
 359 O     6.0000    0    15.999   28.605937   46.973414   16.168459
 360 O     6.0000    0    15.999   28.655694   40.244760   11.494883
 361 O     6.0000    0    15.999   33.291268   45.396589   15.846676
 362 O     6.0000    0    15.999   32.180827   48.724699    9.748833
 363 O     6.0000    0    15.999   33.272937   41.429846   12.891523
 364 Si    4.0000    0    28.086   47.012059   50.969769   11.682438
 365 Si    4.0000    0    28.086   44.665454   56.335571   10.901754
 366 H     1.0000    0     1.008   41.700794   63.432947   16.168459
 367 O     6.0000    0    15.999   41.750551   56.704275   11.494883
 368 H     1.0000    0     1.008   46.386125   61.856103   15.846676
 369 O     6.0000    0    15.999   46.367794   57.889360   12.891523
 370 Si    4.0000    0    28.086   46.996355   58.890102   15.661975
 371 H     1.0000    0     1.008   49.961014   51.792745   11.408239
 372 H     1.0000    0     1.008   49.911258   58.521398   16.255103
 373 O     6.0000    0    15.999   45.275684   53.369570   11.086456
 374 O     6.0000    0    15.999   46.386125   50.041460   14.509053
 375 O     6.0000    0    15.999   45.294014   57.336313   17.651743
 376 Si    4.0000    0    28.086   31.554893   47.796390   16.442658
 377 Si    4.0000    0    28.086   33.901498   42.430588   15.661975
 378 O     6.0000    0    15.999   36.866157   35.333230   11.408239
 379 O     6.0000    0    15.999   36.816400   42.061883   16.255103
 380 O     6.0000    0    15.999   32.180827   36.910055   11.086456
 381 O     6.0000    0    15.999   33.291268   33.581945   14.509053
 382 O     6.0000    0    15.999   32.199157   40.876798   17.651743
 383 Si    4.0000    0    28.086   31.570596   58.890102   15.661975
 384 O     6.0000    0    15.999   28.605937   51.792745   11.408239
 385 O     6.0000    0    15.999   28.655694   58.521398   16.255103
 386 O     6.0000    0    15.999   33.291268   53.369570   11.086456
 387 O     6.0000    0    15.999   32.180827   50.041460   14.509053
 388 O     6.0000    0    15.999   33.272937   57.336313   17.651743
 389 Si    4.0000    0    28.086   47.012059   47.796390   16.442658
 390 Si    4.0000    0    28.086   44.665454   42.430588   15.661975
 391 O     6.0000    0    15.999   41.700794   35.333230   11.408239
 392 O     6.0000    0    15.999   41.750551   42.061883   16.255103
 393 O     6.0000    0    15.999   46.386125   36.910055   11.086456
 394 O     6.0000    0    15.999   45.275684   33.581945   14.509053
 395 O     6.0000    0    15.999   46.367794   40.876798   17.651743
 396 Si    4.0000    0    28.086   44.649750   34.510273   11.682438
 397 Si    4.0000    0    28.086   46.996355   39.876056   10.901754
 398 H     1.0000    0     1.008   49.961014   46.973414   16.168459
 399 H     1.0000    0     1.008   49.911258   40.244760   11.494883
 400 O     6.0000    0    15.999   45.275684   45.396589   15.846676
 401 O     6.0000    0    15.999   46.386125   48.724699    9.748833
 402 O     6.0000    0    15.999   45.294014   41.429846   12.891523
 403 Si    4.0000    0    28.086   31.554893   50.969769   11.682438
 404 Si    4.0000    0    28.086   33.901498   56.335571   10.901754
 405 H     1.0000    0     1.008   36.866157   63.432947   16.168459
 406 O     6.0000    0    15.999   36.816400   56.704275   11.494883
 407 H     1.0000    0     1.008   32.180827   61.856103   15.846676
 408 O     6.0000    0    15.999   32.199157   57.889360   12.891523
 409 Si    4.0000    0    28.086   26.188618   41.933495   11.906163
 410 Si    4.0000    0    28.086   26.188618   45.327462   16.633067
 411 O     6.0000    0    15.999   26.188618   43.003364   14.706132
 412 O     6.0000    0    15.999   26.188618   44.280630    9.995404
 413 Si    4.0000    0    28.086   39.283476   58.393010   11.906163
 414 Si    4.0000    0    28.086   39.283476   61.786977   16.633067
 415 O     6.0000    0    15.999   39.283476   59.462878   14.706132
 416 Si    4.0000    0    28.086   26.188618   56.832663   16.666383
 417 Si    4.0000    0    28.086   26.188618   53.438696   11.872847
 418 O     6.0000    0    15.999   26.188618   55.762795    9.945912
 419 O     6.0000    0    15.999   26.188618   54.485529   14.755624
 420 Si    4.0000    0    28.086   39.283476   40.373148   16.666383
 421 Si    4.0000    0    28.086   39.283476   36.979181   11.872847
 422 O     6.0000    0    15.999   39.283476   39.303280    9.945912
 423 O     6.0000    0    15.999   39.283476   38.026014   14.755624
 424 Si    4.0000    0    28.086    5.380882    6.957027   20.422195
 425 H     1.0000    0     1.008    2.416223   14.054385   25.688899
 426 H     1.0000    0     1.008    2.465979    7.325731   21.015323
 427 O     6.0000    0    15.999    7.101553   12.477559   25.367117
 428 O     6.0000    0    15.999    5.991112   15.805669   19.269273
 429 O     6.0000    0    15.999    7.083223    8.510816   22.411963
 430 O     6.0000    0    15.999   15.511080   30.513899   25.688899
 431 O     6.0000    0    15.999   20.196410   28.937074   25.367117
 432 Si    4.0000    0    28.086   18.460035   31.336856   25.963099
 433 O     6.0000    0    15.999   23.721543   25.602369   25.775543
 434 O     6.0000    0    15.999   20.196410   17.122431   24.029493
 435 O     6.0000    0    15.999   19.104300   24.417284   27.172183
 436 Si    4.0000    0    28.086    5.365178   14.877360   25.963099
 437 Si    4.0000    0    28.086    7.711783    9.511559   25.182415
 438 H     1.0000    0     1.008   10.676442    2.414201   20.928679
 439 O     6.0000    0    15.999   10.626686    9.142854   25.775543
 440 H     1.0000    0     1.008    5.991112    3.991026   20.606897
 441 Si    4.0000    0    28.086    7.727487   31.336856   25.963099
 442 Si    4.0000    0    28.086    5.380882   25.971073   25.182415
 443 H     1.0000    0     1.008    2.416223   18.873715   20.928679
 444 H     1.0000    0     1.008    2.465979   25.602369   25.775543
 445 O     6.0000    0    15.999    7.101553   20.450541   20.606897
 446 O     6.0000    0    15.999    5.991112   17.122431   24.029493
 447 O     6.0000    0    15.999    7.083223   24.417284   27.172183
 448 Si    4.0000    0    28.086   20.822344   14.877360   25.963099
 449 Si    4.0000    0    28.086   18.475739    9.511559   25.182415
 450 H     1.0000    0     1.008   15.511080    2.414201   20.928679
 451 O     6.0000    0    15.999   15.560836    9.142854   25.775543
 452 H     1.0000    0     1.008   20.196410    3.991026   20.606897
 453 O     6.0000    0    15.999   20.178080    7.957769   27.172183
 454 Si    4.0000    0    28.086   20.806641    6.957027   20.422195
 455 O     6.0000    0    15.999   23.771300   14.054385   25.688899
 456 O     6.0000    0    15.999   23.721543    7.325731   21.015323
 457 O     6.0000    0    15.999   19.085969   12.477559   25.367117
 458 O     6.0000    0    15.999   20.196410   15.805669   19.269273
 459 O     6.0000    0    15.999   19.104300    8.510816   22.411963
 460 Si    4.0000    0    28.086    5.365178   18.050740   21.202878
 461 Si    4.0000    0    28.086    7.711783   23.416541   20.422195
 462 O     6.0000    0    15.999   10.676442   30.513899   25.688899
 463 O     6.0000    0    15.999   10.626686   23.785246   21.015323
 464 O     6.0000    0    15.999    5.991112   28.937074   25.367117
 465 O     6.0000    0    15.999    7.101553   32.265184   19.269273
 466 O     6.0000    0    15.999    6.009442   24.970331   22.411963
 467 Si    4.0000    0    28.086   13.093761   28.867948   26.153507
 468 O     6.0000    0    15.999   13.093761   26.543849   24.226572
 469 Si    4.0000    0    28.086   13.093761    7.454119   26.186823
 470 Si    4.0000    0    28.086   13.093761    4.060152   21.393287
 471 O     6.0000    0    15.999   13.093761    6.384251   19.466352
 472 O     6.0000    0    15.999   13.093761    5.106985   24.276064
 473 O     6.0000    0    15.999    5.991112   15.805669   28.789713
 474 Si    4.0000    0    28.086   20.822344   18.050740   30.723319
 475 Si    4.0000    0    28.086   18.475739   23.416541   29.942635
 476 O     6.0000    0    15.999   15.560836   23.785246   30.535763
 477 O     6.0000    0    15.999   19.085969   32.265184   28.789713
 478 O     6.0000    0    15.999   23.771300   18.873715   30.449119
 479 O     6.0000    0    15.999   19.085969   20.450541   30.127337
 480 H     1.0000    0     1.008   20.196410   17.122431   33.549933
 481 H     1.0000    0     1.008    2.416223   18.873715   30.449119
 482 O     6.0000    0    15.999    7.101553   20.450541   30.127337
 483 H     1.0000    0     1.008    5.991112   17.122431   33.549933
 484 H     1.0000    0     1.008   20.196410    3.991026   30.127337
 485 Si    4.0000    0    28.086   20.806641    6.957027   29.942635
 486 O     6.0000    0    15.999   23.721543    7.325731   30.535763
 487 O     6.0000    0    15.999   20.196410   15.805669   28.789713
 488 Si    4.0000    0    28.086    5.365178   18.050740   30.723319
 489 Si    4.0000    0    28.086    7.711783   23.416541   29.942635
 490 O     6.0000    0    15.999   10.626686   23.785246   30.535763
 491 O     6.0000    0    15.999    7.101553   32.265184   28.789713
 492 Si    4.0000    0    28.086   13.093761   25.473981   30.947043
 493 H     1.0000    0     1.008   13.093761   26.543849   33.747013
 494 O     6.0000    0    15.999   13.093761   27.821115   29.036285
 495 Si    4.0000    0    28.086   31.570596    6.957027   20.422195
 496 O     6.0000    0    15.999   28.605937   14.054385   25.688899
 497 O     6.0000    0    15.999   28.655694    7.325731   21.015323
 498 O     6.0000    0    15.999   33.291268   12.477559   25.367117
 499 O     6.0000    0    15.999   32.180827   15.805669   19.269273
 500 O     6.0000    0    15.999   33.272937    8.510816   22.411963
 501 Si    4.0000    0    28.086   47.012059   18.050740   21.202878
 502 Si    4.0000    0    28.086   44.665454   23.416541   20.422195
 503 O     6.0000    0    15.999   41.700794   30.513899   25.688899
 504 O     6.0000    0    15.999   41.750551   23.785246   21.015323
 505 O     6.0000    0    15.999   46.386125   28.937074   25.367117
 506 O     6.0000    0    15.999   45.275684   32.265184   19.269273
 507 O     6.0000    0    15.999   46.367794   24.970331   22.411963
 508 Si    4.0000    0    28.086   44.649750   31.336856   25.963099
 509 Si    4.0000    0    28.086   46.996355   25.971073   25.182415
 510 H     1.0000    0     1.008   49.961014   18.873715   20.928679
 511 H     1.0000    0     1.008   49.911258   25.602369   25.775543
 512 O     6.0000    0    15.999   45.275684   20.450541   20.606897
 513 O     6.0000    0    15.999   46.386125   17.122431   24.029493
 514 O     6.0000    0    15.999   45.294014   24.417284   27.172183
 515 Si    4.0000    0    28.086   31.554893   14.877360   25.963099
 516 Si    4.0000    0    28.086   33.901498    9.511559   25.182415
 517 H     1.0000    0     1.008   36.866157    2.414201   20.928679
 518 O     6.0000    0    15.999   36.816400    9.142854   25.775543
 519 H     1.0000    0     1.008   32.180827    3.991026   20.606897
 520 O     6.0000    0    15.999   32.199157    7.957769   27.172183
 521 Si    4.0000    0    28.086   33.917201   31.336856   25.963099
 522 Si    4.0000    0    28.086   31.570596   25.971073   25.182415
 523 O     6.0000    0    15.999   28.605937   18.873715   20.928679
 524 O     6.0000    0    15.999   28.655694   25.602369   25.775543
 525 O     6.0000    0    15.999   33.291268   20.450541   20.606897
 526 O     6.0000    0    15.999   32.180827   17.122431   24.029493
 527 O     6.0000    0    15.999   33.272937   24.417284   27.172183
 528 Si    4.0000    0    28.086   47.012059   14.877360   25.963099
 529 Si    4.0000    0    28.086   44.665454    9.511559   25.182415
 530 H     1.0000    0     1.008   41.700794    2.414201   20.928679
 531 O     6.0000    0    15.999   41.750551    9.142854   25.775543
 532 H     1.0000    0     1.008   46.386125    3.991026   20.606897
 533 Si    4.0000    0    28.086   46.996355    6.957027   20.422195
 534 H     1.0000    0     1.008   49.961014   14.054385   25.688899
 535 H     1.0000    0     1.008   49.911258    7.325731   21.015323
 536 O     6.0000    0    15.999   45.275684   12.477559   25.367117
 537 O     6.0000    0    15.999   46.386125   15.805669   19.269273
 538 O     6.0000    0    15.999   45.294014    8.510816   22.411963
 539 Si    4.0000    0    28.086   31.554893   18.050740   21.202878
 540 Si    4.0000    0    28.086   33.901498   23.416541   20.422195
 541 O     6.0000    0    15.999   36.866157   30.513899   25.688899
 542 O     6.0000    0    15.999   36.816400   23.785246   21.015323
 543 O     6.0000    0    15.999   32.180827   28.937074   25.367117
 544 O     6.0000    0    15.999   33.291268   32.265184   19.269273
 545 O     6.0000    0    15.999   32.199157   24.970331   22.411963
 546 Si    4.0000    0    28.086   26.188618    9.014466   21.426603
 547 Si    4.0000    0    28.086   26.188618   12.408433   26.153507
 548 O     6.0000    0    15.999   26.188618   10.084335   24.226572
 549 O     6.0000    0    15.999   26.188618   11.361600   19.515844
 550 Si    4.0000    0    28.086   39.283476   25.473981   21.426603
 551 Si    4.0000    0    28.086   39.283476   28.867948   26.153507
 552 O     6.0000    0    15.999   39.283476   26.543849   24.226572
 553 O     6.0000    0    15.999   39.283476   27.821115   19.515844
 554 Si    4.0000    0    28.086   26.188618   23.913634   26.186823
 555 O     6.0000    0    15.999   26.188618   21.566500   24.276064
 556 Si    4.0000    0    28.086   39.283476    7.454119   26.186823
 557 Si    4.0000    0    28.086   39.283476    4.060152   21.393287
 558 O     6.0000    0    15.999   39.283476    6.384251   19.466352
 559 O     6.0000    0    15.999   39.283476    5.106985   24.276064
 560 Si    4.0000    0    28.086   31.570596    6.957027   29.942635
 561 O     6.0000    0    15.999   28.655694    7.325731   30.535763
 562 O     6.0000    0    15.999   32.180827   15.805669   28.789713
 563 Si    4.0000    0    28.086   47.012059   18.050740   30.723319
 564 Si    4.0000    0    28.086   44.665454   23.416541   29.942635
 565 O     6.0000    0    15.999   41.750551   23.785246   30.535763
 566 O     6.0000    0    15.999   45.275684   32.265184   28.789713
 567 H     1.0000    0     1.008   49.961014   18.873715   30.449119
 568 O     6.0000    0    15.999   45.275684   20.450541   30.127337
 569 H     1.0000    0     1.008   46.386125   17.122431   33.549933
 570 H     1.0000    0     1.008   32.180827    3.991026   30.127337
 571 O     6.0000    0    15.999   28.605937   18.873715   30.449119
 572 O     6.0000    0    15.999   33.291268   20.450541   30.127337
 573 H     1.0000    0     1.008   32.180827   17.122431   33.549933
 574 O     6.0000    0    15.999   46.386125   15.805669   28.789713
 575 Si    4.0000    0    28.086   31.554893   18.050740   30.723319
 576 Si    4.0000    0    28.086   33.901498   23.416541   29.942635
 577 O     6.0000    0    15.999   36.816400   23.785246   30.535763
 578 O     6.0000    0    15.999   33.291268   32.265184   28.789713
 579 Si    4.0000    0    28.086   26.188618    9.014466   30.947043
 580 H     1.0000    0     1.008   26.188618   10.084335   33.747013
 581 O     6.0000    0    15.999   26.188618   11.361600   29.036285
 582 Si    4.0000    0    28.086   39.283476   25.473981   30.947043
 583 H     1.0000    0     1.008   39.283476   26.543849   33.747013
 584 O     6.0000    0    15.999   39.283476   27.821115   29.036285
 585 Si    4.0000    0    28.086   26.188618   20.519667   30.913727
 586 O     6.0000    0    15.999   26.188618   22.843765   28.986793
 587 H     1.0000    0     1.008   26.188618   21.566500   33.796505
 588 Si    4.0000    0    28.086    7.727487   34.510273   21.202878
 589 Si    4.0000    0    28.086    5.380882   39.876056   20.422195
 590 H     1.0000    0     1.008    2.416223   46.973414   25.688899
 591 H     1.0000    0     1.008    2.465979   40.244760   21.015323
 592 O     6.0000    0    15.999    7.101553   45.396589   25.367117
 593 O     6.0000    0    15.999    5.991112   48.724699   19.269273
 594 O     6.0000    0    15.999    7.083223   41.429846   22.411963
 595 Si    4.0000    0    28.086   20.822344   50.969769   21.202878
 596 Si    4.0000    0    28.086   18.475739   56.335571   20.422195
 597 H     1.0000    0     1.008   15.511080   63.432947   25.688899
 598 O     6.0000    0    15.999   15.560836   56.704275   21.015323
 599 H     1.0000    0     1.008   20.196410   61.856103   25.367117
 600 O     6.0000    0    15.999   20.178080   57.889360   22.411963
 601 Si    4.0000    0    28.086   20.806641   58.890102   25.182415
 602 O     6.0000    0    15.999   23.771300   51.792745   20.928679
 603 O     6.0000    0    15.999   23.721543   58.521398   25.775543
 604 O     6.0000    0    15.999   19.085969   53.369570   20.606897
 605 O     6.0000    0    15.999   20.196410   50.041460   24.029493
 606 O     6.0000    0    15.999   19.104300   57.336313   27.172183
 607 Si    4.0000    0    28.086    5.365178   47.796390   25.963099
 608 Si    4.0000    0    28.086    7.711783   42.430588   25.182415
 609 O     6.0000    0    15.999   10.676442   35.333230   20.928679
 610 O     6.0000    0    15.999   10.626686   42.061883   25.775543
 611 O     6.0000    0    15.999    5.991112   36.910055   20.606897
 612 O     6.0000    0    15.999    7.101553   33.581945   24.029493
 613 O     6.0000    0    15.999    6.009442   40.876798   27.172183
 614 Si    4.0000    0    28.086    5.380882   58.890102   25.182415
 615 H     1.0000    0     1.008    2.416223   51.792745   20.928679
 616 H     1.0000    0     1.008    2.465979   58.521398   25.775543
 617 O     6.0000    0    15.999    7.101553   53.369570   20.606897
 618 O     6.0000    0    15.999    5.991112   50.041460   24.029493
 619 O     6.0000    0    15.999    7.083223   57.336313   27.172183
 620 Si    4.0000    0    28.086   20.822344   47.796390   25.963099
 621 Si    4.0000    0    28.086   18.475739   42.430588   25.182415
 622 O     6.0000    0    15.999   15.511080   35.333230   20.928679
 623 O     6.0000    0    15.999   15.560836   42.061883   25.775543
 624 O     6.0000    0    15.999   20.196410   36.910055   20.606897
 625 O     6.0000    0    15.999   19.085969   33.581945   24.029493
 626 O     6.0000    0    15.999   20.178080   40.876798   27.172183
 627 Si    4.0000    0    28.086   20.806641   39.876056   20.422195
 628 O     6.0000    0    15.999   23.771300   46.973414   25.688899
 629 O     6.0000    0    15.999   23.721543   40.244760   21.015323
 630 O     6.0000    0    15.999   19.085969   45.396589   25.367117
 631 O     6.0000    0    15.999   20.196410   48.724699   19.269273
 632 O     6.0000    0    15.999   19.104300   41.429846   22.411963
 633 Si    4.0000    0    28.086    5.365178   50.969769   21.202878
 634 Si    4.0000    0    28.086    7.711783   56.335571   20.422195
 635 H     1.0000    0     1.008   10.676442   63.432947   25.688899
 636 O     6.0000    0    15.999   10.626686   56.704275   21.015323
 637 H     1.0000    0     1.008    5.991112   61.856103   25.367117
 638 O     6.0000    0    15.999    6.009442   57.889360   22.411963
 639 Si    4.0000    0    28.086   13.093761   58.393010   21.426603
 640 Si    4.0000    0    28.086   13.093761   61.786977   26.153507
 641 O     6.0000    0    15.999   13.093761   59.462878   24.226572
 642 O     6.0000    0    15.999   13.093761   60.740144   19.515844
 643 Si    4.0000    0    28.086   13.093761   40.373148   26.186823
 644 Si    4.0000    0    28.086   13.093761   36.979181   21.393287
 645 O     6.0000    0    15.999   13.093761   39.303280   19.466352
 646 O     6.0000    0    15.999   13.093761   38.026014   24.276064
 647 Si    4.0000    0    28.086    7.727487   34.510273   30.723319
 648 Si    4.0000    0    28.086    5.380882   39.876056   29.942635
 649 H     1.0000    0     1.008    2.465979   40.244760   30.535763
 650 O     6.0000    0    15.999    5.991112   48.724699   28.789713
 651 Si    4.0000    0    28.086   20.822344   50.969769   30.723319
 652 Si    4.0000    0    28.086   18.475739   56.335571   29.942635
 653 O     6.0000    0    15.999   15.560836   56.704275   30.535763
 654 O     6.0000    0    15.999   23.771300   51.792745   30.449119
 655 O     6.0000    0    15.999   19.085969   53.369570   30.127337
 656 H     1.0000    0     1.008   20.196410   50.041460   33.549933
 657 O     6.0000    0    15.999   10.676442   35.333230   30.449119
 658 O     6.0000    0    15.999    5.991112   36.910055   30.127337
 659 H     1.0000    0     1.008    7.101553   33.581945   33.549933
 660 H     1.0000    0     1.008    2.416223   51.792745   30.449119
 661 O     6.0000    0    15.999    7.101553   53.369570   30.127337
 662 H     1.0000    0     1.008    5.991112   50.041460   33.549933
 663 O     6.0000    0    15.999   15.511080   35.333230   30.449119
 664 O     6.0000    0    15.999   20.196410   36.910055   30.127337
 665 H     1.0000    0     1.008   19.085969   33.581945   33.549933
 666 Si    4.0000    0    28.086   18.460035   34.510273   30.723319
 667 Si    4.0000    0    28.086   20.806641   39.876056   29.942635
 668 O     6.0000    0    15.999   23.721543   40.244760   30.535763
 669 O     6.0000    0    15.999   20.196410   48.724699   28.789713
 670 Si    4.0000    0    28.086    5.365178   50.969769   30.723319
 671 Si    4.0000    0    28.086    7.711783   56.335571   29.942635
 672 O     6.0000    0    15.999   10.626686   56.704275   30.535763
 673 Si    4.0000    0    28.086   13.093761   58.393010   30.947043
 674 H     1.0000    0     1.008   13.093761   59.462878   33.747013
 675 O     6.0000    0    15.999   13.093761   60.740144   29.036285
 676 Si    4.0000    0    28.086   13.093761   36.979181   30.913727
 677 O     6.0000    0    15.999   13.093761   39.303280   28.986793
 678 H     1.0000    0     1.008   13.093761   38.026014   33.796505
 679 Si    4.0000    0    28.086   33.917201   34.510273   21.202878
 680 Si    4.0000    0    28.086   31.570596   39.876056   20.422195
 681 O     6.0000    0    15.999   28.605937   46.973414   25.688899
 682 O     6.0000    0    15.999   28.655694   40.244760   21.015323
 683 O     6.0000    0    15.999   33.291268   45.396589   25.367117
 684 O     6.0000    0    15.999   32.180827   48.724699   19.269273
 685 O     6.0000    0    15.999   33.272937   41.429846   22.411963
 686 Si    4.0000    0    28.086   47.012059   50.969769   21.202878
 687 Si    4.0000    0    28.086   44.665454   56.335571   20.422195
 688 H     1.0000    0     1.008   41.700794   63.432947   25.688899
 689 O     6.0000    0    15.999   41.750551   56.704275   21.015323
 690 H     1.0000    0     1.008   46.386125   61.856103   25.367117
 691 O     6.0000    0    15.999   46.367794   57.889360   22.411963
 692 Si    4.0000    0    28.086   46.996355   58.890102   25.182415
 693 H     1.0000    0     1.008   49.961014   51.792745   20.928679
 694 H     1.0000    0     1.008   49.911258   58.521398   25.775543
 695 O     6.0000    0    15.999   45.275684   53.369570   20.606897
 696 O     6.0000    0    15.999   46.386125   50.041460   24.029493
 697 O     6.0000    0    15.999   45.294014   57.336313   27.172183
 698 Si    4.0000    0    28.086   31.554893   47.796390   25.963099
 699 Si    4.0000    0    28.086   33.901498   42.430588   25.182415
 700 O     6.0000    0    15.999   36.866157   35.333230   20.928679
 701 O     6.0000    0    15.999   36.816400   42.061883   25.775543
 702 O     6.0000    0    15.999   32.180827   36.910055   20.606897
 703 O     6.0000    0    15.999   33.291268   33.581945   24.029493
 704 O     6.0000    0    15.999   32.199157   40.876798   27.172183
 705 Si    4.0000    0    28.086   31.570596   58.890102   25.182415
 706 O     6.0000    0    15.999   28.605937   51.792745   20.928679
 707 O     6.0000    0    15.999   28.655694   58.521398   25.775543
 708 O     6.0000    0    15.999   33.291268   53.369570   20.606897
 709 O     6.0000    0    15.999   32.180827   50.041460   24.029493
 710 O     6.0000    0    15.999   33.272937   57.336313   27.172183
 711 Si    4.0000    0    28.086   47.012059   47.796390   25.963099
 712 Si    4.0000    0    28.086   44.665454   42.430588   25.182415
 713 O     6.0000    0    15.999   41.700794   35.333230   20.928679
 714 O     6.0000    0    15.999   41.750551   42.061883   25.775543
 715 O     6.0000    0    15.999   46.386125   36.910055   20.606897
 716 O     6.0000    0    15.999   45.275684   33.581945   24.029493
 717 O     6.0000    0    15.999   46.367794   40.876798   27.172183
 718 Si    4.0000    0    28.086   44.649750   34.510273   21.202878
 719 Si    4.0000    0    28.086   46.996355   39.876056   20.422195
 720 H     1.0000    0     1.008   49.961014   46.973414   25.688899
 721 H     1.0000    0     1.008   49.911258   40.244760   21.015323
 722 O     6.0000    0    15.999   45.275684   45.396589   25.367117
 723 O     6.0000    0    15.999   46.386125   48.724699   19.269273
 724 O     6.0000    0    15.999   45.294014   41.429846   22.411963
 725 Si    4.0000    0    28.086   31.554893   50.969769   21.202878
 726 Si    4.0000    0    28.086   33.901498   56.335571   20.422195
 727 H     1.0000    0     1.008   36.866157   63.432947   25.688899
 728 O     6.0000    0    15.999   36.816400   56.704275   21.015323
 729 H     1.0000    0     1.008   32.180827   61.856103   25.367117
 730 O     6.0000    0    15.999   32.199157   57.889360   22.411963
 731 Si    4.0000    0    28.086   26.188618   41.933495   21.426603
 732 Si    4.0000    0    28.086   26.188618   45.327462   26.153507
 733 O     6.0000    0    15.999   26.188618   43.003364   24.226572
 734 O     6.0000    0    15.999   26.188618   44.280630   19.515844
 735 Si    4.0000    0    28.086   39.283476   58.393010   21.426603
 736 Si    4.0000    0    28.086   39.283476   61.786977   26.153507
 737 O     6.0000    0    15.999   39.283476   59.462878   24.226572
 738 O     6.0000    0    15.999   39.283476   60.740144   19.515844
 739 Si    4.0000    0    28.086   26.188618   56.832663   26.186823
 740 Si    4.0000    0    28.086   26.188618   53.438696   21.393287
 741 O     6.0000    0    15.999   26.188618   55.762795   19.466352
 742 O     6.0000    0    15.999   26.188618   54.485529   24.276064
 743 Si    4.0000    0    28.086   39.283476   40.373148   26.186823
 744 Si    4.0000    0    28.086   39.283476   36.979181   21.393287
 745 O     6.0000    0    15.999   39.283476   39.303280   19.466352
 746 O     6.0000    0    15.999   39.283476   38.026014   24.276064
 747 Si    4.0000    0    28.086   33.917201   34.510273   30.723319
 748 Si    4.0000    0    28.086   31.570596   39.876056   29.942635
 749 O     6.0000    0    15.999   28.655694   40.244760   30.535763
 750 O     6.0000    0    15.999   32.180827   48.724699   28.789713
 751 Si    4.0000    0    28.086   47.012059   50.969769   30.723319
 752 Si    4.0000    0    28.086   44.665454   56.335571   29.942635
 753 O     6.0000    0    15.999   41.750551   56.704275   30.535763
 754 H     1.0000    0     1.008   49.961014   51.792745   30.449119
 755 O     6.0000    0    15.999   45.275684   53.369570   30.127337
 756 H     1.0000    0     1.008   46.386125   50.041460   33.549933
 757 O     6.0000    0    15.999   36.866157   35.333230   30.449119
 758 O     6.0000    0    15.999   32.180827   36.910055   30.127337
 759 H     1.0000    0     1.008   33.291268   33.581945   33.549933
 760 O     6.0000    0    15.999   28.605937   51.792745   30.449119
 761 O     6.0000    0    15.999   33.291268   53.369570   30.127337
 762 H     1.0000    0     1.008   32.180827   50.041460   33.549933
 763 O     6.0000    0    15.999   41.700794   35.333230   30.449119
 764 O     6.0000    0    15.999   46.386125   36.910055   30.127337
 765 H     1.0000    0     1.008   45.275684   33.581945   33.549933
 766 Si    4.0000    0    28.086   44.649750   34.510273   30.723319
 767 Si    4.0000    0    28.086   46.996355   39.876056   29.942635
 768 H     1.0000    0     1.008   49.911258   40.244760   30.535763
 769 O     6.0000    0    15.999   46.386125   48.724699   28.789713
 770 Si    4.0000    0    28.086   31.554893   50.969769   30.723319
 771 Si    4.0000    0    28.086   33.901498   56.335571   29.942635
 772 O     6.0000    0    15.999   36.816400   56.704275   30.535763
 773 Si    4.0000    0    28.086   26.188618   41.933495   30.947043
 774 H     1.0000    0     1.008   26.188618   43.003364   33.747013
 775 O     6.0000    0    15.999   26.188618   44.280630   29.036285
 776 Si    4.0000    0    28.086   39.283476   58.393010   30.947043
 777 H     1.0000    0     1.008   39.283476   59.462878   33.747013
 778 O     6.0000    0    15.999   39.283476   60.740144   29.036285
 779 Si    4.0000    0    28.086   26.188618   53.438696   30.913727
 780 O     6.0000    0    15.999   26.188618   55.762795   28.986793
 781 H     1.0000    0     1.008   26.188618   54.485529   33.796505
 782 Si    4.0000    0    28.086   39.283476   36.979181   30.913727
 783 O     6.0000    0    15.999   39.283476   39.303280   28.986793
 784 H     1.0000    0     1.008   39.283476   38.026014   33.796505
 785 H     1.0000    0     1.008   46.155673   57.719209   31.693485
 786 H     1.0000    0     1.008   32.411279   57.719209   31.693485
 787 H     1.0000    0     1.008   19.965958   57.719209   31.693485
 788 H     1.0000    0     1.008    6.221564   57.719209   31.693485
 789 H     1.0000    0     1.008    6.221564   24.800180   31.693485
 790 H     1.0000    0     1.008   19.316421   41.259695   31.693485
 791 H     1.0000    0     1.008    6.871101   41.259695   31.693485
 792 H     1.0000    0     1.008   45.506136   41.259695   31.693485
 793 H     1.0000    0     1.008   33.060815   41.259695   31.693485
 794 H     1.0000    0     1.008   46.155673   24.800180   31.693485
 795 H     1.0000    0     1.008   32.411279   24.800180   31.693485
 796 H     1.0000    0     1.008   19.965958   24.800180   31.693485
 797 H     1.0000    0     1.008    6.221564    8.127920   26.933265
 798 H     1.0000    0     1.008   19.316421    8.340665   31.693485
 799 H     1.0000    0     1.008   33.060815    8.340665   31.693485
 800 H     1.0000    0     1.008   13.093761    6.500507   28.695076
 801 H     1.0000    0     1.008   46.155673    8.127920   26.933265
 802 H     1.0000    0     1.008   39.283476    6.500507   28.695076
 803 H     1.0000    0     1.008   39.283476    5.427558    5.387023
 804 H     1.0000    0     1.008   46.536604   16.889446    5.211619
 805 H     1.0000    0     1.008   39.283476   60.419571   10.147244
 806 H     1.0000    0     1.008   45.236208   57.261593    8.448701
 807 H     1.0000    0     1.008   46.536604   49.808475    5.211619
 808 H     1.0000    0     1.008   26.188618   43.245116    5.420131
 809 H     1.0000    0     1.008   39.283476   26.785602    5.420131
 810 H     1.0000    0     1.008   13.093761    5.427558    5.387023
 811 H     1.0000    0     1.008   26.188618   10.326087    5.420131
 812 H     1.0000    0     1.008    5.840633   16.889446    5.211619
 813 H     1.0000    0     1.008   13.093761   26.785602    5.420131
 814 H     1.0000    0     1.008    5.840633   49.808475    5.211619
 815 H     1.0000    0     1.008    7.141029   57.261593    8.448701
 816 H     1.0000    0     1.008   13.093761   60.419571   10.147244

------------------------------------------------------------------------------
                           ORCA NDO INTEGRAL CALCULATION
------------------------------------------------------------------------------

--------------
NDO PARAMETERS
--------------

Gamma integral treatment              ... Mataga-Nishimoto
Nuclear repulsuion treatment          ... Direct (ZA*ZB/RAB)
Interaction factors:
s-s (sigma) =    1.0000
s-p (sigma) =    1.0000
s-d (sigma) =    1.0000
p-p (sigma) =    1.2670  p-p(pi) =    0.5850
p-d (sigma) =    1.0000  p-d(pi) =    1.0000
d-d (sigma) =    1.0000  d-d(pi) =    1.0000 d-d (delta) =    1.0000

fGamma parameter for Mataga-Nishimoto gamma integrals:    1.2000

--------------------------
Parameters for Element H :
--------------------------
 One-electron parameters (in eV)
  U(s)  =   -13.060000 Beta(s) =    12.000000 Neff(s) =     1.000000
 One-center electron repulsion parameters (in eV)
  G(s,s)=    12.850000
--------------------------
Parameters for Element O :
--------------------------
 One-electron parameters (in eV)
  U(s)  =   -90.023218 Beta(s) =    34.000000 Neff(s) =     2.000000
  U(p)  =   -76.684970 Beta(p) =    34.000000 Neff(p) =     4.000000 
 One-center electron repulsion parameters (in eV)
  G(s,s)=    13.000000
  G(s,p)=    13.000000 G(p,p)  =    13.000000
 Slater-Condon parameters (in eV)
 F2(p,p)=     6.9027 G1(s,p)=   11.8152
--------------------------
Parameters for Element Al:
--------------------------
 One-electron parameters (in eV)
  U(s)  =   -23.190162 Beta(s) =    11.300000 Neff(s) =     2.000000
  U(p)  =   -17.280324 Beta(p) =    11.300000 Neff(p) =     1.000000 
 One-center electron repulsion parameters (in eV)
  G(s,s)=     6.210000
  G(s,p)=     6.210000 G(p,p)  =     6.210000
 Slater-Condon parameters (in eV)
 F2(p,p)=     1.6025 G1(s,p)=    3.3590
--------------------------
Parameters for Element Si:
--------------------------
 One-electron parameters (in eV)
  U(s)  =   -36.235929 Beta(s) =    13.000000 Neff(s) =     2.000000
  U(p)  =   -28.594917 Beta(p) =    13.000000 Neff(p) =     2.000000 
 One-center electron repulsion parameters (in eV)
  G(s,s)=     7.570000
  G(s,p)=     7.570000 G(p,p)  =     7.570000
 Slater-Condon parameters (in eV)
 F2(p,p)=     2.2627 G1(s,p)=    4.8122

 Number of atoms                    ....  817
 Number of basis functions          .... 2761

 Overlap integrals                  .... done
 One electron matrix                .... done
 Nuclear repulsion                  .... done
 Integral list                      .... done
 Electron-electron repulsion        .... done
Initializing property integral containers    ... done (  0.0 sec)

Diagonalization of the overlap matrix:
Smallest eigenvalue                        ... 2.480e-01
Time for diagonalization                   ...    2.730 sec
Threshold for overlap eigenvalues          ... 1.000e-07
Number of eigenvalues below threshold      ... 0
Time for construction of square roots      ...    0.891 sec
Total time needed                          ...    3.652 sec
-------------------------------
INITIAL GUESS: EXTENDED HUECKEL
-------------------------------
EHT matrix was read from disk
EHT matrix was diagonalized
Initial density was built
                      ------------------
                      INITIAL GUESS DONE
                      ------------------
             **** ENERGY FILE WAS UPDATED (orca_zindos_lessprint.en.tmp) ****
Finished Guess after  14.6 sec
Maximum memory used throughout the entire GUESS-calculation: 473.6 MB

 InCore treatment chosen for four center integrals:
   Memory dedicated               ...    40000 MB
   Memory needed                  ...     65 MB
   Number of tiny    integrals    ...       0
   Number of small   integrals    ...       0
   Number of regular integrals    ... 3816829

----------------------------------------D-I-I-S--------------------------------------------
Iteration    Energy (Eh)           Delta-E    RMSDP     MaxDP     DIISErr   Damp  Time(sec)
-------------------------------------------------------------------------------------------
    1    -13377.1387988070491701     0.00e+00  9.85e-04  8.60e-02  3.86e-01  0.700   7.7
    2    -13385.5013024811050855    -8.36e+00  8.85e-04  7.32e-02  3.03e-01  0.700  13.1
    3    -13392.3362086251145229    -6.83e+00  7.10e-04  5.56e-02  2.32e-01  0.700   7.6
                               ***Turning on AO-DIIS***
    4    -13397.6876024073571898    -5.35e+00  7.17e-04  4.79e-02  1.77e-01  0.700   7.8
    5    -13401.7949625060427934    -4.11e+00  5.72e-04  3.88e-02  1.29e-01  0.700   8.0
    6    -13404.9422978711081669    -3.15e+00  4.32e-04  3.03e-02  9.34e-02  0.700   8.1
    7    -13407.3267891533905640    -2.38e+00  1.07e-03  7.61e-02  6.69e-02  0.000   7.9
                              *** Initializing SOSCF ***
---------------------------------------S-O-S-C-F--------------------------------------
Iteration    Energy (Eh)           Delta-E    RMSDP     MaxDP     MaxGrad    Time(sec)
--------------------------------------------------------------------------------------
    8    -13413.6679531022673473    -6.34e+00  5.89e-05  4.55e-03  3.28e-03    13.5
    9    -13413.6743474121904001    -6.39e-03  2.42e-05  1.99e-03  4.68e-04     5.2
   10    -13413.6753224910353310    -9.75e-04  1.36e-05  1.04e-03  1.54e-04     5.1
   11    -13413.6754749841638841    -1.52e-04  4.23e-07  3.31e-05  1.42e-05     5.1
   12    -13413.6754753156565130    -3.31e-07  8.67e-08  5.29e-06  2.45e-06     5.2
                 **** Energy Check signals convergence ****

               *****************************************************
               *                     SUCCESS                       *
               *           SCF CONVERGED AFTER  12 CYCLES          *
               *****************************************************

             **** ENERGY FILE WAS UPDATED (orca_zindos_lessprint.en.tmp) ****

----------------
TOTAL SCF ENERGY
----------------

Total Energy       :     -13413.67547532735625 Eh         -365004.66616 eV

Components:
Nuclear Repulsion  :     273352.88897073722910 Eh         7438310.26528 eV
Electronic Energy  :    -286766.56444606458535 Eh        -7803314.93144 eV
One Electron Energy:    -572945.37166210869327 Eh       -15590636.17555 eV
Two Electron Energy:     286178.80721604410792 Eh         7787321.24411 eV

---------------
SCF CONVERGENCE
---------------

  Last Energy change         ...    3.3149e-07  Tolerance :   1.0000e-06
  Last MAX-Density change    ...    5.2949e-06  Tolerance :   1.0000e-05
  Last RMS-Density change    ...    8.6701e-08  Tolerance :   1.0000e-06
  Last DIIS Error            ...    3.2814e-03  Tolerance :   1.0000e-06
  Last Orbital Gradient      ...    2.4547e-06  Tolerance :   5.0000e-05
  Last Orbital Rotation      ...    2.1550e-06  Tolerance :   5.0000e-05


----------------
ORBITAL ENERGIES
----------------

  NO   OCC          E(Eh)            E(eV) 
   0   2.0000      -1.185644       -32.2630 
   1   2.0000      -1.184620       -32.2352 
   2   2.0000      -1.181667       -32.1548 
   3   2.0000      -1.181074       -32.1387 
   4   2.0000      -1.157516       -31.4976 
   5   2.0000      -1.156376       -31.4666 
   6   2.0000      -1.152511       -31.3614 
   7   2.0000      -1.151931       -31.3456 
   8   2.0000      -1.127341       -30.6765 
   9   2.0000      -1.125880       -30.6368 
  10   2.0000      -1.121360       -30.5138 
  11   2.0000      -1.120121       -30.4800 
  12   2.0000      -1.117165       -30.3996 
  13   2.0000      -1.116545       -30.3827 
  14   2.0000      -1.116065       -30.3697 
  15   2.0000      -1.113872       -30.3100 
  16   2.0000      -1.113340       -30.2955 
  17   2.0000      -1.105249       -30.0753 
  18   2.0000      -1.101805       -29.9816 
  19   2.0000      -1.094577       -29.7850 
  20   2.0000      -1.093788       -29.7635 
  21   2.0000      -1.093500       -29.7556 
  22   2.0000      -1.091341       -29.6969 
  23   2.0000      -1.090021       -29.6610 
  24   2.0000      -1.084881       -29.5211 
  25   2.0000      -1.081770       -29.4364 
  26   2.0000      -1.080449       -29.4005 
  27   2.0000      -1.079844       -29.3840 
  28   2.0000      -1.079046       -29.3623 
  29   2.0000      -1.077979       -29.3333 
  30   2.0000      -1.077146       -29.3106 
  31   2.0000      -1.068525       -29.0760 
  32   2.0000      -1.066865       -29.0309 
  33   2.0000      -1.065499       -28.9937 
  34   2.0000      -1.064723       -28.9726 
  35   2.0000      -1.063139       -28.9295 
  36   2.0000      -1.061578       -28.8870 
  37   2.0000      -1.058763       -28.8104 
  38   2.0000      -1.058291       -28.7976 
  39   2.0000      -1.050501       -28.5856 
  40   2.0000      -1.050300       -28.5801 
  41   2.0000      -1.047947       -28.5161 
  42   2.0000      -1.046636       -28.4804 
  43   2.0000      -1.045804       -28.4578 
  44   2.0000      -1.044796       -28.4303 
  45   2.0000      -1.043868       -28.4051 
  46   2.0000      -1.042646       -28.3719 
  47   2.0000      -1.038649       -28.2631 
  48   2.0000      -1.036200       -28.1964 
  49   2.0000      -1.035154       -28.1680 
  50   2.0000      -1.034432       -28.1483 
  51   2.0000      -1.032531       -28.0966 
  52   2.0000      -1.030377       -28.0380 
  53   2.0000      -1.028773       -27.9943 
  54   2.0000      -1.027998       -27.9732 
  55   2.0000      -1.026148       -27.9229 
  56   2.0000      -1.024634       -27.8817 
  57   2.0000      -1.024115       -27.8676 
  58   2.0000      -1.022911       -27.8348 
  59   2.0000      -1.019665       -27.7465 
  60   2.0000      -1.015305       -27.6278 
  61   2.0000      -1.015050       -27.6209 
  62   2.0000      -1.010974       -27.5100 
  63   2.0000      -1.009898       -27.4807 
  64   2.0000      -1.008143       -27.4330 
  65   2.0000      -1.007316       -27.4105 
  66   2.0000      -1.006542       -27.3894 
  67   2.0000      -1.003825       -27.3155 
  68   2.0000      -1.003221       -27.2990 
  69   2.0000      -1.002219       -27.2718 
  70   2.0000      -1.001582       -27.2544 
  71   2.0000      -1.001080       -27.2408 
  72   2.0000      -0.998261       -27.1641 
  73   2.0000      -0.997751       -27.1502 
  74   2.0000      -0.995195       -27.0806 
  75   2.0000      -0.994100       -27.0508 
  76   2.0000      -0.993970       -27.0473 
  77   2.0000      -0.992170       -26.9983 
  78   2.0000      -0.989532       -26.9265 
  79   2.0000      -0.986143       -26.8343 
  80   2.0000      -0.984707       -26.7952 
  81   2.0000      -0.983949       -26.7746 
  82   2.0000      -0.983569       -26.7643 
  83   2.0000      -0.982781       -26.7428 
  84   2.0000      -0.982214       -26.7274 
  85   2.0000      -0.980818       -26.6894 
  86   2.0000      -0.979981       -26.6666 
  87   2.0000      -0.979526       -26.6542 
  88   2.0000      -0.978234       -26.6191 
  89   2.0000      -0.977519       -26.5997 
  90   2.0000      -0.976723       -26.5780 
  91   2.0000      -0.973987       -26.5035 
  92   2.0000      -0.972689       -26.4682 
  93   2.0000      -0.972424       -26.4610 
  94   2.0000      -0.971565       -26.4376 
  95   2.0000      -0.970833       -26.4177 
  96   2.0000      -0.970155       -26.3992 
  97   2.0000      -0.969837       -26.3906 
  98   2.0000      -0.968205       -26.3462 
  99   2.0000      -0.965984       -26.2857 
 100   2.0000      -0.964945       -26.2575 
 101   2.0000      -0.964563       -26.2471 
 102   2.0000      -0.963036       -26.2055 
 103   2.0000      -0.960525       -26.1372 
 104   2.0000      -0.959141       -26.0995 
 105   2.0000      -0.958075       -26.0705 
 106   2.0000      -0.956939       -26.0396 
 107   2.0000      -0.956419       -26.0255 
 108   2.0000      -0.955567       -26.0023 
 109   2.0000      -0.954594       -25.9758 
 110   2.0000      -0.953893       -25.9567 
 111   2.0000      -0.953453       -25.9448 
 112   2.0000      -0.952150       -25.9093 
 113   2.0000      -0.951118       -25.8812 
 114   2.0000      -0.950106       -25.8537 
 115   2.0000      -0.949701       -25.8427 
 116   2.0000      -0.947824       -25.7916 
 117   2.0000      -0.946621       -25.7589 
 118   2.0000      -0.945684       -25.7334 
 119   2.0000      -0.944896       -25.7119 
 120   2.0000      -0.944375       -25.6977 
 121   2.0000      -0.943338       -25.6695 
 122   2.0000      -0.942611       -25.6498 
 123   2.0000      -0.941470       -25.6187 
 124   2.0000      -0.939493       -25.5649 
 125   2.0000      -0.938621       -25.5412 
 126   2.0000      -0.935702       -25.4617 
 127   2.0000      -0.934513       -25.4294 
 128   2.0000      -0.932739       -25.3811 
 129   2.0000      -0.932060       -25.3627 
 130   2.0000      -0.930546       -25.3214 
 131   2.0000      -0.929604       -25.2958 
 132   2.0000      -0.928846       -25.2752 
 133   2.0000      -0.927356       -25.2346 
 134   2.0000      -0.926826       -25.2202 
 135   2.0000      -0.924205       -25.1489 
 136   2.0000      -0.922492       -25.1023 
 137   2.0000      -0.922254       -25.0958 
 138   2.0000      -0.921334       -25.0708 
 139   2.0000      -0.920161       -25.0389 
 140   2.0000      -0.919748       -25.0276 
 141   2.0000      -0.919199       -25.0127 
 142   2.0000      -0.918677       -24.9985 
 143   2.0000      -0.917425       -24.9644 
 144   2.0000      -0.916853       -24.9488 
 145   2.0000      -0.915320       -24.9071 
 146   2.0000      -0.912898       -24.8412 
 147   2.0000      -0.912448       -24.8290 
 148   2.0000      -0.911444       -24.8016 
 149   2.0000      -0.910733       -24.7823 
 150   2.0000      -0.910269       -24.7697 
 151   2.0000      -0.909797       -24.7568 
 152   2.0000      -0.908954       -24.7339 
 153   2.0000      -0.908519       -24.7221 
 154   2.0000      -0.905771       -24.6473 
 155   2.0000      -0.905327       -24.6352 
 156   2.0000      -0.904697       -24.6181 
 157   2.0000      -0.904289       -24.6070 
 158   2.0000      -0.903115       -24.5750 
 159   2.0000      -0.902741       -24.5648 
 160   2.0000      -0.901382       -24.5278 
 161   2.0000      -0.900432       -24.5020 
 162   2.0000      -0.899798       -24.4848 
 163   2.0000      -0.898134       -24.4395 
 164   2.0000      -0.897768       -24.4295 
 165   2.0000      -0.895515       -24.3682 
 166   2.0000      -0.894994       -24.3540 
 167   2.0000      -0.894135       -24.3306 
 168   2.0000      -0.892925       -24.2977 
 169   2.0000      -0.891702       -24.2645 
 170   2.0000      -0.891612       -24.2620 
 171   2.0000      -0.891218       -24.2513 
 172   2.0000      -0.889954       -24.2169 
 173   2.0000      -0.889535       -24.2055 
 174   2.0000      -0.887703       -24.1556 
 175   2.0000      -0.887531       -24.1510 
 176   2.0000      -0.886696       -24.1282 
 177   2.0000      -0.885991       -24.1090 
 178   2.0000      -0.885220       -24.0881 
 179   2.0000      -0.884190       -24.0600 
 180   2.0000      -0.883986       -24.0545 
 181   2.0000      -0.883236       -24.0341 
 182   2.0000      -0.882473       -24.0133 
 183   2.0000      -0.881973       -23.9997 
 184   2.0000      -0.880908       -23.9707 
 185   2.0000      -0.878649       -23.9092 
 186   2.0000      -0.877659       -23.8823 
 187   2.0000      -0.875706       -23.8292 
 188   2.0000      -0.874517       -23.7968 
 189   2.0000      -0.873482       -23.7687 
 190   2.0000      -0.872302       -23.7365 
 191   2.0000      -0.871451       -23.7134 
 192   2.0000      -0.871055       -23.7026 
 193   2.0000      -0.870962       -23.7001 
 194   2.0000      -0.869462       -23.6593 
 195   2.0000      -0.867277       -23.5998 
 196   2.0000      -0.867075       -23.5943 
 197   2.0000      -0.866750       -23.5855 
 198   2.0000      -0.865169       -23.5424 
 199   2.0000      -0.864265       -23.5178 
 200   2.0000      -0.863276       -23.4909 
 201   2.0000      -0.862757       -23.4768 
 202   2.0000      -0.860798       -23.4235 
 203   2.0000      -0.860343       -23.4111 
 204   2.0000      -0.860161       -23.4062 
 205   2.0000      -0.858435       -23.3592 
 206   2.0000      -0.857705       -23.3393 
 207   2.0000      -0.856629       -23.3101 
 208   2.0000      -0.856338       -23.3021 
 209   2.0000      -0.853004       -23.2114 
 210   2.0000      -0.851884       -23.1809 
 211   2.0000      -0.851214       -23.1627 
 212   2.0000      -0.850401       -23.1406 
 213   2.0000      -0.847799       -23.0698 
 214   2.0000      -0.845067       -22.9954 
 215   2.0000      -0.844058       -22.9680 
 216   2.0000      -0.843446       -22.9513 
 217   2.0000      -0.842970       -22.9384 
 218   2.0000      -0.842183       -22.9170 
 219   2.0000      -0.841345       -22.8942 
 220   2.0000      -0.840590       -22.8736 
 221   2.0000      -0.840286       -22.8653 
 222   2.0000      -0.839817       -22.8526 
 223   2.0000      -0.838243       -22.8097 
 224   2.0000      -0.837960       -22.8021 
 225   2.0000      -0.836828       -22.7713 
 226   2.0000      -0.835509       -22.7354 
 227   2.0000      -0.835157       -22.7258 
 228   2.0000      -0.834396       -22.7051 
 229   2.0000      -0.833409       -22.6782 
 230   2.0000      -0.832057       -22.6414 
 231   2.0000      -0.831446       -22.6248 
 232   2.0000      -0.830680       -22.6040 
 233   2.0000      -0.830341       -22.5947 
 234   2.0000      -0.828985       -22.5578 
 235   2.0000      -0.827477       -22.5168 
 236   2.0000      -0.826368       -22.4866 
 237   2.0000      -0.826047       -22.4779 
 238   2.0000      -0.825553       -22.4644 
 239   2.0000      -0.823808       -22.4169 
 240   2.0000      -0.822862       -22.3912 
 241   2.0000      -0.821410       -22.3517 
 242   2.0000      -0.821043       -22.3417 
 243   2.0000      -0.820457       -22.3258 
 244   2.0000      -0.818118       -22.2621 
 245   2.0000      -0.816252       -22.2114 
 246   2.0000      -0.815350       -22.1868 
 247   2.0000      -0.814556       -22.1652 
 248   2.0000      -0.813617       -22.1397 
 249   2.0000      -0.812980       -22.1223 
 250   2.0000      -0.812545       -22.1105 
 251   2.0000      -0.811445       -22.0805 
 252   2.0000      -0.810173       -22.0459 
 253   2.0000      -0.808774       -22.0079 
 254   2.0000      -0.807626       -21.9766 
 255   2.0000      -0.806032       -21.9333 
 256   2.0000      -0.803521       -21.8649 
 257   2.0000      -0.803168       -21.8553 
 258   2.0000      -0.802951       -21.8494 
 259   2.0000      -0.800507       -21.7829 
 260   2.0000      -0.800250       -21.7759 
 261   2.0000      -0.799873       -21.7656 
 262   2.0000      -0.799192       -21.7471 
 263   2.0000      -0.798037       -21.7157 
 264   2.0000      -0.796703       -21.6794 
 265   2.0000      -0.795624       -21.6500 
 266   2.0000      -0.795230       -21.6393 
 267   2.0000      -0.794083       -21.6081 
 268   2.0000      -0.792785       -21.5728 
 269   2.0000      -0.791445       -21.5363 
 270   2.0000      -0.791091       -21.5267 
 271   2.0000      -0.790614       -21.5137 
 272   2.0000      -0.788833       -21.4652 
 273   2.0000      -0.788590       -21.4586 
 274   2.0000      -0.788265       -21.4498 
 275   2.0000      -0.787134       -21.4190 
 276   2.0000      -0.785405       -21.3720 
 277   2.0000      -0.783506       -21.3203 
 278   2.0000      -0.782775       -21.3004 
 279   2.0000      -0.781673       -21.2704 
 280   2.0000      -0.780145       -21.2288 
 281   2.0000      -0.779633       -21.2149 
 282   2.0000      -0.778515       -21.1845 
 283   2.0000      -0.778023       -21.1711 
 284   2.0000      -0.777755       -21.1638 
 285   2.0000      -0.776538       -21.1307 
 286   2.0000      -0.775337       -21.0980 
 287   2.0000      -0.774868       -21.0852 
 288   2.0000      -0.772987       -21.0341 
 289   2.0000      -0.772032       -21.0081 
 290   2.0000      -0.769893       -20.9499 
 291   2.0000      -0.769630       -20.9427 
 292   2.0000      -0.768531       -20.9128 
 293   2.0000      -0.768198       -20.9037 
 294   2.0000      -0.767225       -20.8773 
 295   2.0000      -0.766379       -20.8542 
 296   2.0000      -0.764362       -20.7993 
 297   2.0000      -0.762667       -20.7532 
 298   2.0000      -0.761225       -20.7140 
 299   2.0000      -0.759652       -20.6712 
 300   2.0000      -0.758075       -20.6283 
 301   2.0000      -0.757414       -20.6103 
 302   2.0000      -0.756397       -20.5826 
 303   2.0000      -0.754600       -20.5337 
 304   2.0000      -0.753378       -20.5005 
 305   2.0000      -0.752041       -20.4641 
 306   2.0000      -0.750931       -20.4339 
 307   2.0000      -0.749350       -20.3909 
 308   2.0000      -0.746516       -20.3137 
 309   2.0000      -0.746142       -20.3036 
 310   2.0000      -0.745862       -20.2959 
 311   2.0000      -0.741352       -20.1732 
 312   2.0000      -0.740725       -20.1561 
 313   2.0000      -0.738378       -20.0923 
 314   2.0000      -0.738048       -20.0833 
 315   2.0000      -0.737463       -20.0674 
 316   2.0000      -0.736671       -20.0458 
 317   2.0000      -0.735999       -20.0276 
 318   2.0000      -0.734921       -19.9982 
 319   2.0000      -0.733553       -19.9610 
 320   2.0000      -0.733258       -19.9530 
 321   2.0000      -0.732618       -19.9355 
 322   2.0000      -0.730700       -19.8834 
 323   2.0000      -0.728218       -19.8158 
 324   2.0000      -0.728031       -19.8107 
 325   2.0000      -0.726609       -19.7720 
 326   2.0000      -0.725053       -19.7297 
 327   2.0000      -0.724978       -19.7277 
 328   2.0000      -0.721984       -19.6462 
 329   2.0000      -0.719337       -19.5742 
 330   2.0000      -0.716871       -19.5071 
 331   2.0000      -0.715950       -19.4820 
 332   2.0000      -0.714168       -19.4335 
 333   2.0000      -0.712650       -19.3922 
 334   2.0000      -0.711343       -19.3566 
 335   2.0000      -0.710639       -19.3375 
 336   2.0000      -0.709864       -19.3164 
 337   2.0000      -0.708844       -19.2886 
 338   2.0000      -0.708416       -19.2770 
 339   2.0000      -0.706693       -19.2301 
 340   2.0000      -0.705947       -19.2098 
 341   2.0000      -0.703408       -19.1407 
 342   2.0000      -0.701618       -19.0920 
 343   2.0000      -0.699315       -19.0293 
 344   2.0000      -0.698361       -19.0034 
 345   2.0000      -0.697259       -18.9734 
 346   2.0000      -0.696624       -18.9561 
 347   2.0000      -0.695968       -18.9383 
 348   2.0000      -0.695282       -18.9196 
 349   2.0000      -0.694200       -18.8901 
 350   2.0000      -0.693993       -18.8845 
 351   2.0000      -0.691578       -18.8188 
 352   2.0000      -0.688941       -18.7470 
 353   2.0000      -0.687672       -18.7125 
 354   2.0000      -0.687525       -18.7085 
 355   2.0000      -0.687041       -18.6953 
 356   2.0000      -0.685856       -18.6631 
 357   2.0000      -0.684083       -18.6148 
 358   2.0000      -0.683167       -18.5899 
 359   2.0000      -0.682016       -18.5586 
 360   2.0000      -0.679913       -18.5014 
 361   2.0000      -0.679204       -18.4821 
 362   2.0000      -0.677530       -18.4365 
 363   2.0000      -0.676711       -18.4143 
 364   2.0000      -0.673994       -18.3403 
 365   2.0000      -0.673169       -18.3179 
 366   2.0000      -0.672352       -18.2956 
 367   2.0000      -0.669125       -18.2078 
 368   2.0000      -0.666968       -18.1491 
 369   2.0000      -0.663127       -18.0446 
 370   2.0000      -0.661301       -17.9949 
 371   2.0000      -0.661124       -17.9901 
 372   2.0000      -0.658632       -17.9223 
 373   2.0000      -0.655278       -17.8310 
 374   2.0000      -0.654418       -17.8076 
 375   2.0000      -0.653301       -17.7772 
 376   2.0000      -0.652929       -17.7671 
 377   2.0000      -0.650251       -17.6942 
 378   2.0000      -0.649760       -17.6809 
 379   2.0000      -0.647922       -17.6308 
 380   2.0000      -0.646367       -17.5885 
 381   2.0000      -0.643736       -17.5169 
 382   2.0000      -0.642747       -17.4900 
 383   2.0000      -0.640401       -17.4262 
 384   2.0000      -0.637202       -17.3391 
 385   2.0000      -0.634153       -17.2562 
 386   2.0000      -0.632424       -17.2091 
 387   2.0000      -0.629808       -17.1379 
 388   2.0000      -0.629365       -17.1259 
 389   2.0000      -0.627759       -17.0822 
 390   2.0000      -0.625846       -17.0301 
 391   2.0000      -0.624825       -17.0024 
 392   2.0000      -0.623492       -16.9661 
 393   2.0000      -0.621495       -16.9117 
 394   2.0000      -0.616238       -16.7687 
 395   2.0000      -0.615166       -16.7395 
 396   2.0000      -0.612433       -16.6651 
 397   2.0000      -0.607721       -16.5369 
 398   2.0000      -0.601424       -16.3656 
 399   2.0000      -0.600715       -16.3463 
 400   2.0000      -0.598657       -16.2903 
 401   2.0000      -0.590759       -16.0754 
 402   2.0000      -0.558874       -15.2077 
 403   2.0000      -0.529991       -14.4218 
 404   2.0000      -0.376916       -10.2564 
 405   2.0000      -0.375871       -10.2280 
 406   2.0000      -0.373457       -10.1623 
 407   2.0000      -0.372938       -10.1482 
 408   2.0000      -0.356404        -9.6982 
 409   2.0000      -0.355221        -9.6660 
 410   2.0000      -0.349761        -9.5175 
 411   2.0000      -0.349209        -9.5025 
 412   2.0000      -0.346670        -9.4334 
 413   2.0000      -0.345805        -9.4098 
 414   2.0000      -0.343625        -9.3505 
 415   2.0000      -0.343131        -9.3371 
 416   2.0000      -0.328683        -8.9439 
 417   2.0000      -0.327649        -8.9158 
 418   2.0000      -0.322276        -8.7696 
 419   2.0000      -0.321784        -8.7562 
 420   2.0000      -0.318221        -8.6592 
 421   2.0000      -0.316996        -8.6259 
 422   2.0000      -0.315693        -8.5904 
 423   2.0000      -0.315171        -8.5762 
 424   2.0000      -0.309933        -8.4337 
 425   2.0000      -0.309221        -8.4143 
 426   2.0000      -0.309065        -8.4101 
 427   2.0000      -0.308764        -8.4019 
 428   2.0000      -0.307871        -8.3776 
 429   2.0000      -0.300984        -8.1902 
 430   2.0000      -0.299203        -8.1417 
 431   2.0000      -0.297271        -8.0892 
 432   2.0000      -0.296736        -8.0746 
 433   2.0000      -0.289959        -7.8902 
 434   2.0000      -0.288770        -7.8578 
 435   2.0000      -0.286629        -7.7996 
 436   2.0000      -0.282554        -7.6887 
 437   2.0000      -0.282488        -7.6869 
 438   2.0000      -0.281887        -7.6705 
 439   2.0000      -0.281287        -7.6542 
 440   2.0000      -0.279954        -7.6179 
 441   2.0000      -0.279367        -7.6020 
 442   2.0000      -0.278373        -7.5749 
 443   2.0000      -0.276819        -7.5326 
 444   2.0000      -0.275674        -7.5015 
 445   2.0000      -0.263543        -7.1714 
 446   2.0000      -0.263120        -7.1599 
 447   2.0000      -0.262171        -7.1340 
 448   2.0000      -0.262033        -7.1303 
 449   2.0000      -0.262001        -7.1294 
 450   2.0000      -0.261206        -7.1078 
 451   2.0000      -0.259321        -7.0565 
 452   2.0000      -0.259102        -7.0505 
 453   2.0000      -0.258622        -7.0375 
 454   2.0000      -0.257302        -7.0015 
 455   2.0000      -0.256164        -6.9706 
 456   2.0000      -0.255966        -6.9652 
 457   2.0000      -0.253322        -6.8932 
 458   2.0000      -0.250535        -6.8174 
 459   2.0000      -0.249788        -6.7971 
 460   2.0000      -0.248624        -6.7654 
 461   2.0000      -0.247787        -6.7426 
 462   2.0000      -0.247286        -6.7290 
 463   2.0000      -0.246700        -6.7130 
 464   2.0000      -0.245342        -6.6761 
 465   2.0000      -0.245015        -6.6672 
 466   2.0000      -0.244722        -6.6592 
 467   2.0000      -0.243129        -6.6159 
 468   2.0000      -0.241815        -6.5801 
 469   2.0000      -0.241797        -6.5796 
 470   2.0000      -0.241276        -6.5655 
 471   2.0000      -0.240471        -6.5436 
 472   2.0000      -0.238797        -6.4980 
 473   2.0000      -0.236872        -6.4456 
 474   2.0000      -0.236697        -6.4409 
 475   2.0000      -0.235667        -6.4128 
 476   2.0000      -0.233423        -6.3518 
 477   2.0000      -0.232673        -6.3313 
 478   2.0000      -0.232408        -6.3241 
 479   2.0000      -0.231910        -6.3106 
 480   2.0000      -0.230142        -6.2625 
 481   2.0000      -0.228878        -6.2281 
 482   2.0000      -0.226970        -6.1762 
 483   2.0000      -0.225709        -6.1419 
 484   2.0000      -0.224361        -6.1052 
 485   2.0000      -0.222731        -6.0608 
 486   2.0000      -0.222198        -6.0463 
 487   2.0000      -0.221114        -6.0168 
 488   2.0000      -0.219630        -5.9764 
 489   2.0000      -0.219325        -5.9681 
 490   2.0000      -0.218919        -5.9571 
 491   2.0000      -0.218426        -5.9437 
 492   2.0000      -0.217370        -5.9149 
 493   2.0000      -0.217003        -5.9049 
 494   2.0000      -0.216436        -5.8895 
 495   2.0000      -0.214857        -5.8466 
 496   2.0000      -0.213848        -5.8191 
 497   2.0000      -0.212974        -5.7953 
 498   2.0000      -0.212251        -5.7756 
 499   2.0000      -0.211860        -5.7650 
 500   2.0000      -0.211726        -5.7614 
 501   2.0000      -0.210732        -5.7343 
 502   2.0000      -0.210204        -5.7200 
 503   2.0000      -0.207924        -5.6579 
 504   2.0000      -0.206643        -5.6230 
 505   2.0000      -0.205559        -5.5935 
 506   2.0000      -0.205218        -5.5843 
 507   2.0000      -0.204150        -5.5552 
 508   2.0000      -0.203371        -5.5340 
 509   2.0000      -0.202936        -5.5222 
 510   2.0000      -0.202499        -5.5103 
 511   2.0000      -0.199735        -5.4351 
 512   2.0000      -0.199172        -5.4197 
 513   2.0000      -0.198750        -5.4083 
 514   2.0000      -0.198068        -5.3897 
 515   2.0000      -0.197873        -5.3844 
 516   2.0000      -0.197676        -5.3790 
 517   2.0000      -0.197150        -5.3647 
 518   2.0000      -0.196774        -5.3545 
 519   2.0000      -0.196492        -5.3468 
 520   2.0000      -0.195978        -5.3328 
 521   2.0000      -0.193718        -5.2713 
 522   2.0000      -0.193622        -5.2687 
 523   2.0000      -0.192746        -5.2449 
 524   2.0000      -0.191626        -5.2144 
 525   2.0000      -0.191040        -5.1985 
 526   2.0000      -0.191006        -5.1975 
 527   2.0000      -0.190142        -5.1740 
 528   2.0000      -0.189272        -5.1504 
 529   2.0000      -0.189010        -5.1432 
 530   2.0000      -0.188806        -5.1377 
 531   2.0000      -0.187779        -5.1097 
 532   2.0000      -0.187514        -5.1025 
 533   2.0000      -0.186775        -5.0824 
 534   2.0000      -0.186478        -5.0743 
 535   2.0000      -0.186015        -5.0617 
 536   2.0000      -0.184654        -5.0247 
 537   2.0000      -0.184590        -5.0229 
 538   2.0000      -0.184307        -5.0152 
 539   2.0000      -0.184085        -5.0092 
 540   2.0000      -0.183192        -4.9849 
 541   2.0000      -0.182300        -4.9606 
 542   2.0000      -0.182058        -4.9540 
 543   2.0000      -0.179161        -4.8752 
 544   2.0000      -0.178748        -4.8640 
 545   2.0000      -0.178224        -4.8497 
 546   2.0000      -0.177717        -4.8359 
 547   2.0000      -0.177097        -4.8191 
 548   2.0000      -0.176588        -4.8052 
 549   2.0000      -0.176333        -4.7983 
 550   2.0000      -0.175531        -4.7764 
 551   2.0000      -0.175229        -4.7682 
 552   2.0000      -0.174972        -4.7612 
 553   2.0000      -0.173009        -4.7078 
 554   2.0000      -0.172685        -4.6990 
 555   2.0000      -0.171974        -4.6796 
 556   2.0000      -0.171493        -4.6666 
 557   2.0000      -0.171301        -4.6613 
 558   2.0000      -0.171074        -4.6552 
 559   2.0000      -0.170677        -4.6443 
 560   2.0000      -0.170130        -4.6295 
 561   2.0000      -0.168655        -4.5893 
 562   2.0000      -0.167721        -4.5639 
 563   2.0000      -0.166898        -4.5415 
 564   2.0000      -0.166432        -4.5289 
 565   2.0000      -0.166378        -4.5274 
 566   2.0000      -0.165782        -4.5112 
 567   2.0000      -0.165470        -4.5027 
 568   2.0000      -0.164708        -4.4819 
 569   2.0000      -0.164339        -4.4719 
 570   2.0000      -0.164015        -4.4631 
 571   2.0000      -0.163709        -4.4548 
 572   2.0000      -0.163554        -4.4505 
 573   2.0000      -0.163020        -4.4360 
 574   2.0000      -0.162989        -4.4352 
 575   2.0000      -0.162510        -4.4221 
 576   2.0000      -0.162137        -4.4120 
 577   2.0000      -0.161403        -4.3920 
 578   2.0000      -0.161279        -4.3886 
 579   2.0000      -0.160381        -4.3642 
 580   2.0000      -0.159667        -4.3448 
 581   2.0000      -0.158770        -4.3203 
 582   2.0000      -0.158625        -4.3164 
 583   2.0000      -0.157555        -4.2873 
 584   2.0000      -0.157339        -4.2814 
 585   2.0000      -0.157275        -4.2797 
 586   2.0000      -0.156505        -4.2587 
 587   2.0000      -0.155948        -4.2436 
 588   2.0000      -0.154855        -4.2138 
 589   2.0000      -0.154518        -4.2046 
 590   2.0000      -0.153668        -4.1815 
 591   2.0000      -0.153258        -4.1704 
 592   2.0000      -0.152835        -4.1588 
 593   2.0000      -0.151824        -4.1313 
 594   2.0000      -0.151451        -4.1212 
 595   2.0000      -0.151048        -4.1102 
 596   2.0000      -0.150628        -4.0988 
 597   2.0000      -0.150483        -4.0948 
 598   2.0000      -0.150001        -4.0817 
 599   2.0000      -0.149251        -4.0613 
 600   2.0000      -0.148866        -4.0509 
 601   2.0000      -0.148490        -4.0406 
 602   2.0000      -0.148319        -4.0360 
 603   2.0000      -0.147656        -4.0179 
 604   2.0000      -0.146187        -3.9779 
 605   2.0000      -0.146087        -3.9752 
 606   2.0000      -0.146016        -3.9733 
 607   2.0000      -0.144862        -3.9419 
 608   2.0000      -0.144613        -3.9351 
 609   2.0000      -0.143190        -3.8964 
 610   2.0000      -0.141819        -3.8591 
 611   2.0000      -0.141420        -3.8482 
 612   2.0000      -0.140782        -3.8309 
 613   2.0000      -0.140481        -3.8227 
 614   2.0000      -0.139936        -3.8079 
 615   2.0000      -0.139660        -3.8003 
 616   2.0000      -0.139380        -3.7927 
 617   2.0000      -0.138980        -3.7818 
 618   2.0000      -0.138646        -3.7727 
 619   2.0000      -0.138286        -3.7630 
 620   2.0000      -0.138050        -3.7565 
 621   2.0000      -0.138007        -3.7554 
 622   2.0000      -0.137809        -3.7500 
 623   2.0000      -0.137213        -3.7338 
 624   2.0000      -0.136602        -3.7171 
 625   2.0000      -0.136162        -3.7051 
 626   2.0000      -0.135640        -3.6909 
 627   2.0000      -0.135440        -3.6855 
 628   2.0000      -0.134084        -3.6486 
 629   2.0000      -0.133820        -3.6414 
 630   2.0000      -0.132591        -3.6080 
 631   2.0000      -0.132355        -3.6016 
 632   2.0000      -0.132028        -3.5927 
 633   2.0000      -0.130507        -3.5513 
 634   2.0000      -0.130004        -3.5376 
 635   2.0000      -0.128726        -3.5028 
 636   2.0000      -0.128364        -3.4930 
 637   2.0000      -0.127925        -3.4810 
 638   2.0000      -0.126472        -3.4415 
 639   2.0000      -0.125994        -3.4285 
 640   2.0000      -0.125824        -3.4239 
 641   2.0000      -0.125288        -3.4093 
 642   2.0000      -0.124822        -3.3966 
 643   2.0000      -0.124451        -3.3865 
 644   2.0000      -0.123704        -3.3662 
 645   2.0000      -0.123546        -3.3618 
 646   2.0000      -0.121788        -3.3140 
 647   2.0000      -0.120706        -3.2846 
 648   2.0000      -0.120478        -3.2784 
 649   2.0000      -0.119481        -3.2512 
 650   2.0000      -0.119039        -3.2392 
 651   2.0000      -0.118841        -3.2338 
 652   2.0000      -0.118465        -3.2236 
 653   2.0000      -0.118054        -3.2124 
 654   2.0000      -0.117925        -3.2089 
 655   2.0000      -0.117478        -3.1967 
 656   2.0000      -0.116873        -3.1803 
 657   2.0000      -0.116176        -3.1613 
 658   2.0000      -0.116085        -3.1588 
 659   2.0000      -0.115929        -3.1546 
 660   2.0000      -0.115720        -3.1489 
 661   2.0000      -0.114972        -3.1285 
 662   2.0000      -0.114647        -3.1197 
 663   2.0000      -0.114425        -3.1137 
 664   2.0000      -0.114063        -3.1038 
 665   2.0000      -0.113267        -3.0821 
 666   2.0000      -0.112480        -3.0607 
 667   2.0000      -0.112291        -3.0556 
 668   2.0000      -0.111151        -3.0246 
 669   2.0000      -0.110922        -3.0183 
 670   2.0000      -0.110107        -2.9962 
 671   2.0000      -0.109963        -2.9922 
 672   2.0000      -0.108825        -2.9613 
 673   2.0000      -0.108228        -2.9450 
 674   2.0000      -0.108122        -2.9421 
 675   2.0000      -0.107923        -2.9367 
 676   2.0000      -0.107376        -2.9219 
 677   2.0000      -0.107048        -2.9129 
 678   2.0000      -0.106810        -2.9064 
 679   2.0000      -0.106268        -2.8917 
 680   2.0000      -0.105951        -2.8831 
 681   2.0000      -0.105364        -2.8671 
 682   2.0000      -0.104510        -2.8439 
 683   2.0000      -0.104268        -2.8373 
 684   2.0000      -0.102571        -2.7911 
 685   2.0000      -0.102430        -2.7873 
 686   2.0000      -0.102049        -2.7769 
 687   2.0000      -0.101810        -2.7704 
 688   2.0000      -0.101398        -2.7592 
 689   2.0000      -0.100780        -2.7424 
 690   2.0000      -0.100572        -2.7367 
 691   2.0000      -0.099495        -2.7074 
 692   2.0000      -0.099227        -2.7001 
 693   2.0000      -0.099135        -2.6976 
 694   2.0000      -0.097858        -2.6629 
 695   2.0000      -0.097334        -2.6486 
 696   2.0000      -0.096981        -2.6390 
 697   2.0000      -0.096123        -2.6156 
 698   2.0000      -0.095667        -2.6032 
 699   2.0000      -0.095528        -2.5994 
 700   2.0000      -0.094938        -2.5834 
 701   2.0000      -0.093952        -2.5566 
 702   2.0000      -0.093788        -2.5521 
 703   2.0000      -0.093376        -2.5409 
 704   2.0000      -0.093051        -2.5321 
 705   2.0000      -0.092562        -2.5187 
 706   2.0000      -0.091960        -2.5023 
 707   2.0000      -0.091577        -2.4919 
 708   2.0000      -0.091204        -2.4818 
 709   2.0000      -0.090320        -2.4577 
 710   2.0000      -0.090250        -2.4558 
 711   2.0000      -0.089433        -2.4336 
 712   2.0000      -0.089167        -2.4263 
 713   2.0000      -0.088680        -2.4131 
 714   2.0000      -0.088425        -2.4062 
 715   2.0000      -0.088280        -2.4022 
 716   2.0000      -0.087071        -2.3693 
 717   2.0000      -0.087033        -2.3683 
 718   2.0000      -0.086011        -2.3405 
 719   2.0000      -0.085817        -2.3352 
 720   2.0000      -0.085358        -2.3227 
 721   2.0000      -0.084766        -2.3066 
 722   2.0000      -0.083500        -2.2722 
 723   2.0000      -0.083368        -2.2685 
 724   2.0000      -0.082888        -2.2555 
 725   2.0000      -0.081446        -2.2163 
 726   2.0000      -0.080653        -2.1947 
 727   2.0000      -0.080608        -2.1934 
 728   2.0000      -0.079591        -2.1658 
 729   2.0000      -0.078822        -2.1449 
 730   2.0000      -0.078304        -2.1308 
 731   2.0000      -0.077556        -2.1104 
 732   2.0000      -0.076981        -2.0948 
 733   2.0000      -0.076784        -2.0894 
 734   2.0000      -0.076384        -2.0785 
 735   2.0000      -0.076149        -2.0721 
 736   2.0000      -0.075830        -2.0634 
 737   2.0000      -0.074840        -2.0365 
 738   2.0000      -0.073503        -2.0001 
 739   2.0000      -0.072686        -1.9779 
 740   2.0000      -0.071992        -1.9590 
 741   2.0000      -0.071495        -1.9455 
 742   2.0000      -0.070261        -1.9119 
 743   2.0000      -0.069809        -1.8996 
 744   2.0000      -0.069302        -1.8858 
 745   2.0000      -0.069061        -1.8792 
 746   2.0000      -0.068674        -1.8687 
 747   2.0000      -0.068540        -1.8651 
 748   2.0000      -0.067770        -1.8441 
 749   2.0000      -0.067634        -1.8404 
 750   2.0000      -0.067486        -1.8364 
 751   2.0000      -0.067028        -1.8239 
 752   2.0000      -0.066806        -1.8179 
 753   2.0000      -0.066472        -1.8088 
 754   2.0000      -0.065782        -1.7900 
 755   2.0000      -0.065125        -1.7721 
 756   2.0000      -0.064889        -1.7657 
 757   2.0000      -0.063967        -1.7406 
 758   2.0000      -0.063640        -1.7317 
 759   2.0000      -0.063193        -1.7196 
 760   2.0000      -0.062973        -1.7136 
 761   2.0000      -0.062303        -1.6953 
 762   2.0000      -0.061845        -1.6829 
 763   2.0000      -0.061432        -1.6716 
 764   2.0000      -0.061121        -1.6632 
 765   2.0000      -0.060371        -1.6428 
 766   2.0000      -0.060225        -1.6388 
 767   2.0000      -0.059751        -1.6259 
 768   2.0000      -0.059202        -1.6110 
 769   2.0000      -0.058462        -1.5908 
 770   2.0000      -0.057553        -1.5661 
 771   2.0000      -0.057350        -1.5606 
 772   2.0000      -0.057212        -1.5568 
 773   2.0000      -0.056602        -1.5402 
 774   2.0000      -0.056108        -1.5268 
 775   2.0000      -0.055322        -1.5054 
 776   2.0000      -0.055110        -1.4996 
 777   2.0000      -0.054904        -1.4940 
 778   2.0000      -0.054036        -1.4704 
 779   2.0000      -0.053527        -1.4566 
 780   2.0000      -0.053233        -1.4485 
 781   2.0000      -0.052460        -1.4275 
 782   2.0000      -0.051815        -1.4100 
 783   2.0000      -0.051356        -1.3975 
 784   2.0000      -0.051134        -1.3914 
 785   2.0000      -0.050951        -1.3865 
 786   2.0000      -0.050381        -1.3709 
 787   2.0000      -0.050236        -1.3670 
 788   2.0000      -0.049821        -1.3557 
 789   2.0000      -0.049528        -1.3477 
 790   2.0000      -0.049081        -1.3356 
 791   2.0000      -0.048043        -1.3073 
 792   2.0000      -0.047004        -1.2790 
 793   2.0000      -0.046113        -1.2548 
 794   2.0000      -0.046014        -1.2521 
 795   2.0000      -0.045508        -1.2383 
 796   2.0000      -0.045227        -1.2307 
 797   2.0000      -0.044827        -1.2198 
 798   2.0000      -0.044386        -1.2078 
 799   2.0000      -0.044300        -1.2055 
 800   2.0000      -0.043769        -1.1910 
 801   2.0000      -0.043505        -1.1838 
 802   2.0000      -0.043361        -1.1799 
 803   2.0000      -0.042754        -1.1634 
 804   2.0000      -0.042537        -1.1575 
 805   2.0000      -0.042261        -1.1500 
 806   2.0000      -0.041661        -1.1337 
 807   2.0000      -0.041537        -1.1303 
 808   2.0000      -0.041426        -1.1273 
 809   2.0000      -0.040237        -1.0949 
 810   2.0000      -0.040158        -1.0928 
 811   2.0000      -0.039885        -1.0853 
 812   2.0000      -0.039378        -1.0715 
 813   2.0000      -0.038692        -1.0529 
 814   2.0000      -0.038452        -1.0463 
 815   2.0000      -0.038120        -1.0373 
 816   2.0000      -0.037613        -1.0235 
 817   2.0000      -0.037436        -1.0187 
 818   2.0000      -0.036759        -1.0003 
 819   2.0000      -0.036588        -0.9956 
 820   2.0000      -0.036354        -0.9892 
 821   2.0000      -0.036012        -0.9799 
 822   2.0000      -0.035500        -0.9660 
 823   2.0000      -0.034230        -0.9315 
 824   2.0000      -0.034176        -0.9300 
 825   2.0000      -0.033551        -0.9130 
 826   2.0000      -0.033119        -0.9012 
 827   2.0000      -0.032956        -0.8968 
 828   2.0000      -0.032248        -0.8775 
 829   2.0000      -0.032004        -0.8709 
 830   2.0000      -0.031741        -0.8637 
 831   2.0000      -0.031493        -0.8570 
 832   2.0000      -0.031321        -0.8523 
 833   2.0000      -0.031088        -0.8460 
 834   2.0000      -0.030649        -0.8340 
 835   2.0000      -0.030418        -0.8277 
 836   2.0000      -0.030260        -0.8234 
 837   2.0000      -0.030096        -0.8190 
 838   2.0000      -0.029828        -0.8117 
 839   2.0000      -0.029707        -0.8084 
 840   2.0000      -0.029502        -0.8028 
 841   2.0000      -0.029306        -0.7975 
 842   2.0000      -0.028689        -0.7807 
 843   2.0000      -0.028618        -0.7787 
 844   2.0000      -0.028226        -0.7681 
 845   2.0000      -0.028025        -0.7626 
 846   2.0000      -0.027194        -0.7400 
 847   2.0000      -0.026959        -0.7336 
 848   2.0000      -0.026363        -0.7174 
 849   2.0000      -0.026101        -0.7102 
 850   2.0000      -0.025657        -0.6982 
 851   2.0000      -0.024885        -0.6772 
 852   2.0000      -0.024517        -0.6671 
 853   2.0000      -0.024051        -0.6545 
 854   2.0000      -0.023470        -0.6387 
 855   2.0000      -0.023052        -0.6273 
 856   2.0000      -0.022348        -0.6081 
 857   2.0000      -0.022241        -0.6052 
 858   2.0000      -0.021457        -0.5839 
 859   2.0000      -0.021182        -0.5764 
 860   2.0000      -0.020411        -0.5554 
 861   2.0000      -0.019868        -0.5406 
 862   2.0000      -0.019702        -0.5361 
 863   2.0000      -0.019267        -0.5243 
 864   2.0000      -0.019030        -0.5178 
 865   2.0000      -0.018747        -0.5101 
 866   2.0000      -0.018459        -0.5023 
 867   2.0000      -0.018342        -0.4991 
 868   2.0000      -0.018013        -0.4902 
 869   2.0000      -0.017076        -0.4647 
 870   2.0000      -0.016794        -0.4570 
 871   2.0000      -0.016101        -0.4381 
 872   2.0000      -0.015625        -0.4252 
 873   2.0000      -0.015422        -0.4197 
 874   2.0000      -0.015150        -0.4123 
 875   2.0000      -0.014949        -0.4068 
 876   2.0000      -0.014450        -0.3932 
 877   2.0000      -0.014285        -0.3887 
 878   2.0000      -0.014148        -0.3850 
 879   2.0000      -0.013937        -0.3792 
 880   2.0000      -0.013791        -0.3753 
 881   2.0000      -0.013438        -0.3657 
 882   2.0000      -0.013097        -0.3564 
 883   2.0000      -0.012860        -0.3499 
 884   2.0000      -0.012165        -0.3310 
 885   2.0000      -0.011937        -0.3248 
 886   2.0000      -0.011802        -0.3212 
 887   2.0000      -0.011070        -0.3012 
 888   2.0000      -0.010944        -0.2978 
 889   2.0000      -0.010482        -0.2852 
 890   2.0000      -0.010437        -0.2840 
 891   2.0000      -0.010386        -0.2826 
 892   2.0000      -0.009312        -0.2534 
 893   2.0000      -0.008998        -0.2449 
 894   2.0000      -0.008530        -0.2321 
 895   2.0000      -0.008124        -0.2211 
 896   2.0000      -0.007929        -0.2158 
 897   2.0000      -0.007674        -0.2088 
 898   2.0000      -0.007409        -0.2016 
 899   2.0000      -0.007124        -0.1939 
 900   2.0000      -0.007011        -0.1908 
 901   2.0000      -0.006572        -0.1788 
 902   2.0000      -0.006422        -0.1747 
 903   2.0000      -0.006052        -0.1647 
 904   2.0000      -0.005897        -0.1605 
 905   2.0000      -0.005619        -0.1529 
 906   2.0000      -0.005350        -0.1456 
 907   2.0000      -0.004907        -0.1335 
 908   2.0000      -0.004600        -0.1252 
 909   2.0000      -0.003721        -0.1013 
 910   2.0000      -0.003394        -0.0924 
 911   2.0000      -0.003182        -0.0866 
 912   2.0000      -0.002753        -0.0749 
 913   2.0000      -0.002596        -0.0707 
 914   2.0000      -0.002349        -0.0639 
 915   2.0000      -0.002161        -0.0588 
 916   2.0000      -0.001924        -0.0524 
 917   2.0000      -0.001859        -0.0506 
 918   2.0000      -0.001529        -0.0416 
 919   2.0000      -0.001339        -0.0364 
 920   2.0000      -0.001060        -0.0288 
 921   2.0000      -0.000695        -0.0189 
 922   2.0000      -0.000515        -0.0140 
 923   2.0000      -0.000237        -0.0065 
 924   2.0000      -0.000013        -0.0003 
 925   2.0000       0.000258         0.0070 
 926   2.0000       0.000476         0.0130 
 927   2.0000       0.000982         0.0267 
 928   2.0000       0.001018         0.0277 
 929   2.0000       0.001309         0.0356 
 930   2.0000       0.001683         0.0458 
 931   2.0000       0.002410         0.0656 
 932   2.0000       0.002549         0.0694 
 933   2.0000       0.002815         0.0766 
 934   2.0000       0.003128         0.0851 
 935   2.0000       0.003332         0.0907 
 936   2.0000       0.003485         0.0948 
 937   2.0000       0.003941         0.1072 
 938   2.0000       0.004153         0.1130 
 939   2.0000       0.004352         0.1184 
 940   2.0000       0.004685         0.1275 
 941   2.0000       0.005079         0.1382 
 942   2.0000       0.005248         0.1428 
 943   2.0000       0.005649         0.1537 
 944   2.0000       0.005968         0.1624 
 945   2.0000       0.006035         0.1642 
 946   2.0000       0.006213         0.1691 
 947   2.0000       0.006325         0.1721 
 948   2.0000       0.006800         0.1851 
 949   2.0000       0.007084         0.1928 
 950   2.0000       0.007582         0.2063 
 951   2.0000       0.007924         0.2156 
 952   2.0000       0.008373         0.2278 
 953   2.0000       0.008555         0.2328 
 954   2.0000       0.008882         0.2417 
 955   2.0000       0.009200         0.2503 
 956   2.0000       0.009309         0.2533 
 957   2.0000       0.009506         0.2587 
 958   2.0000       0.009846         0.2679 
 959   2.0000       0.010185         0.2771 
 960   2.0000       0.010601         0.2885 
 961   2.0000       0.010902         0.2967 
 962   2.0000       0.011171         0.3040 
 963   2.0000       0.011564         0.3147 
 964   2.0000       0.011872         0.3230 
 965   2.0000       0.012158         0.3308 
 966   2.0000       0.012581         0.3423 
 967   2.0000       0.013120         0.3570 
 968   2.0000       0.013137         0.3575 
 969   2.0000       0.013255         0.3607 
 970   2.0000       0.013407         0.3648 
 971   2.0000       0.013639         0.3711 
 972   2.0000       0.013750         0.3742 
 973   2.0000       0.014167         0.3855 
 974   2.0000       0.014342         0.3903 
 975   2.0000       0.014556         0.3961 
 976   2.0000       0.015199         0.4136 
 977   2.0000       0.015548         0.4231 
 978   2.0000       0.016098         0.4381 
 979   2.0000       0.016523         0.4496 
 980   2.0000       0.016666         0.4535 
 981   2.0000       0.017105         0.4655 
 982   2.0000       0.017762         0.4833 
 983   2.0000       0.018030         0.4906 
 984   2.0000       0.018569         0.5053 
 985   2.0000       0.019017         0.5175 
 986   2.0000       0.019320         0.5257 
 987   2.0000       0.019509         0.5309 
 988   2.0000       0.020433         0.5560 
 989   2.0000       0.021257         0.5784 
 990   2.0000       0.021342         0.5808 
 991   2.0000       0.021669         0.5897 
 992   2.0000       0.021821         0.5938 
 993   2.0000       0.022017         0.5991 
 994   2.0000       0.022201         0.6041 
 995   2.0000       0.022633         0.6159 
 996   2.0000       0.022901         0.6232 
 997   2.0000       0.023190         0.6310 
 998   2.0000       0.023456         0.6383 
 999   2.0000       0.023592         0.6420 
 1000   2.0000       0.023813         0.6480 
 1001   2.0000       0.024314         0.6616 
 1002   2.0000       0.024398         0.6639 
 1003   2.0000       0.024873         0.6768 
 1004   2.0000       0.025178         0.6851 
 1005   2.0000       0.025471         0.6931 
 1006   2.0000       0.025742         0.7005 
 1007   2.0000       0.026181         0.7124 
 1008   2.0000       0.026475         0.7204 
 1009   2.0000       0.026589         0.7235 
 1010   2.0000       0.027134         0.7384 
 1011   2.0000       0.027329         0.7437 
 1012   2.0000       0.027567         0.7501 
 1013   2.0000       0.027827         0.7572 
 1014   2.0000       0.028219         0.7679 
 1015   2.0000       0.028405         0.7729 
 1016   2.0000       0.028607         0.7784 
 1017   2.0000       0.028738         0.7820 
 1018   2.0000       0.028990         0.7889 
 1019   2.0000       0.029609         0.8057 
 1020   2.0000       0.030055         0.8178 
 1021   2.0000       0.030803         0.8382 
 1022   2.0000       0.031087         0.8459 
 1023   2.0000       0.031205         0.8491 
 1024   2.0000       0.031650         0.8612 
 1025   2.0000       0.031895         0.8679 
 1026   2.0000       0.031899         0.8680 
 1027   2.0000       0.032232         0.8771 
 1028   2.0000       0.032661         0.8888 
 1029   2.0000       0.033017         0.8984 
 1030   2.0000       0.033309         0.9064 
 1031   2.0000       0.033355         0.9076 
 1032   2.0000       0.033488         0.9112 
 1033   2.0000       0.034038         0.9262 
 1034   2.0000       0.034277         0.9327 
 1035   2.0000       0.034423         0.9367 
 1036   2.0000       0.034725         0.9449 
 1037   2.0000       0.034975         0.9517 
 1038   2.0000       0.035276         0.9599 
 1039   2.0000       0.035579         0.9682 
 1040   2.0000       0.035836         0.9752 
 1041   2.0000       0.036104         0.9824 
 1042   2.0000       0.036171         0.9843 
 1043   2.0000       0.036293         0.9876 
 1044   2.0000       0.036403         0.9906 
 1045   2.0000       0.036557         0.9948 
 1046   2.0000       0.036720         0.9992 
 1047   2.0000       0.037407         1.0179 
 1048   2.0000       0.037631         1.0240 
 1049   2.0000       0.037866         1.0304 
 1050   2.0000       0.038103         1.0368 
 1051   2.0000       0.038304         1.0423 
 1052   2.0000       0.038702         1.0531 
 1053   2.0000       0.038921         1.0591 
 1054   2.0000       0.039470         1.0740 
 1055   2.0000       0.039671         1.0795 
 1056   2.0000       0.039999         1.0884 
 1057   2.0000       0.040258         1.0955 
 1058   2.0000       0.040457         1.1009 
 1059   2.0000       0.040591         1.1045 
 1060   2.0000       0.040810         1.1105 
 1061   2.0000       0.041032         1.1165 
 1062   2.0000       0.041208         1.1213 
 1063   2.0000       0.041625         1.1327 
 1064   2.0000       0.042342         1.1522 
 1065   2.0000       0.042813         1.1650 
 1066   2.0000       0.042925         1.1680 
 1067   2.0000       0.043369         1.1801 
 1068   2.0000       0.043684         1.1887 
 1069   2.0000       0.043881         1.1941 
 1070   2.0000       0.044109         1.2003 
 1071   2.0000       0.044291         1.2052 
 1072   2.0000       0.044486         1.2105 
 1073   2.0000       0.044738         1.2174 
 1074   2.0000       0.044927         1.2225 
 1075   2.0000       0.045421         1.2360 
 1076   2.0000       0.045711         1.2439 
 1077   2.0000       0.046100         1.2545 
 1078   2.0000       0.046183         1.2567 
 1079   2.0000       0.046418         1.2631 
 1080   2.0000       0.046716         1.2712 
 1081   2.0000       0.046916         1.2767 
 1082   2.0000       0.047062         1.2806 
 1083   2.0000       0.047201         1.2844 
 1084   2.0000       0.047552         1.2939 
 1085   2.0000       0.047768         1.2998 
 1086   2.0000       0.048141         1.3100 
 1087   2.0000       0.048471         1.3190 
 1088   2.0000       0.048667         1.3243 
 1089   2.0000       0.048893         1.3304 
 1090   2.0000       0.049000         1.3333 
 1091   2.0000       0.049809         1.3554 
 1092   2.0000       0.050079         1.3627 
 1093   2.0000       0.050206         1.3662 
 1094   2.0000       0.050724         1.3803 
 1095   2.0000       0.051578         1.4035 
 1096   2.0000       0.052174         1.4197 
 1097   2.0000       0.052224         1.4211 
 1098   2.0000       0.052394         1.4257 
 1099   2.0000       0.052541         1.4297 
 1100   2.0000       0.052819         1.4373 
 1101   2.0000       0.053009         1.4424 
 1102   2.0000       0.053793         1.4638 
 1103   2.0000       0.054424         1.4810 
 1104   2.0000       0.054648         1.4871 
 1105   2.0000       0.054958         1.4955 
 1106   2.0000       0.055482         1.5097 
 1107   2.0000       0.055617         1.5134 
 1108   2.0000       0.055664         1.5147 
 1109   2.0000       0.055896         1.5210 
 1110   2.0000       0.056066         1.5256 
 1111   2.0000       0.056306         1.5322 
 1112   2.0000       0.056491         1.5372 
 1113   2.0000       0.056760         1.5445 
 1114   2.0000       0.056929         1.5491 
 1115   2.0000       0.057181         1.5560 
 1116   2.0000       0.057373         1.5612 
 1117   2.0000       0.057800         1.5728 
 1118   2.0000       0.057933         1.5764 
 1119   2.0000       0.058119         1.5815 
 1120   2.0000       0.058665         1.5964 
 1121   2.0000       0.058731         1.5982 
 1122   2.0000       0.059035         1.6064 
 1123   2.0000       0.059592         1.6216 
 1124   2.0000       0.059733         1.6254 
 1125   2.0000       0.059810         1.6275 
 1126   2.0000       0.059866         1.6290 
 1127   2.0000       0.060272         1.6401 
 1128   2.0000       0.060306         1.6410 
 1129   2.0000       0.060387         1.6432 
 1130   2.0000       0.060561         1.6479 
 1131   2.0000       0.061095         1.6625 
 1132   2.0000       0.061649         1.6775 
 1133   2.0000       0.062040         1.6882 
 1134   2.0000       0.062180         1.6920 
 1135   2.0000       0.062824         1.7095 
 1136   2.0000       0.062930         1.7124 
 1137   2.0000       0.063180         1.7192 
 1138   2.0000       0.063485         1.7275 
 1139   2.0000       0.063958         1.7404 
 1140   2.0000       0.064390         1.7521 
 1141   2.0000       0.064863         1.7650 
 1142   2.0000       0.064965         1.7678 
 1143   2.0000       0.065213         1.7745 
 1144   2.0000       0.065374         1.7789 
 1145   2.0000       0.065459         1.7812 
 1146   2.0000       0.065727         1.7885 
 1147   2.0000       0.066458         1.8084 
 1148   2.0000       0.066559         1.8112 
 1149   2.0000       0.066988         1.8228 
 1150   2.0000       0.067197         1.8285 
 1151   2.0000       0.067314         1.8317 
 1152   2.0000       0.067334         1.8323 
 1153   2.0000       0.068070         1.8523 
 1154   2.0000       0.068356         1.8601 
 1155   2.0000       0.068688         1.8691 
 1156   2.0000       0.068907         1.8751 
 1157   2.0000       0.069038         1.8786 
 1158   2.0000       0.069804         1.8995 
 1159   2.0000       0.070096         1.9074 
 1160   2.0000       0.070357         1.9145 
 1161   2.0000       0.070858         1.9281 
 1162   2.0000       0.071144         1.9359 
 1163   2.0000       0.071310         1.9404 
 1164   2.0000       0.071565         1.9474 
 1165   2.0000       0.071833         1.9547 
 1166   2.0000       0.071944         1.9577 
 1167   2.0000       0.072359         1.9690 
 1168   2.0000       0.073200         1.9919 
 1169   2.0000       0.073275         1.9939 
 1170   2.0000       0.073651         2.0041 
 1171   2.0000       0.073805         2.0083 
 1172   2.0000       0.073940         2.0120 
 1173   2.0000       0.074016         2.0141 
 1174   2.0000       0.074247         2.0204 
 1175   2.0000       0.074769         2.0346 
 1176   2.0000       0.074934         2.0391 
 1177   2.0000       0.075389         2.0514 
 1178   2.0000       0.075697         2.0598 
 1179   2.0000       0.075766         2.0617 
 1180   2.0000       0.075903         2.0654 
 1181   2.0000       0.075934         2.0663 
 1182   2.0000       0.076415         2.0794 
 1183   2.0000       0.076958         2.0941 
 1184   2.0000       0.077222         2.1013 
 1185   2.0000       0.077502         2.1089 
 1186   2.0000       0.077836         2.1180 
 1187   2.0000       0.078008         2.1227 
 1188   2.0000       0.078316         2.1311 
 1189   2.0000       0.078492         2.1359 
 1190   2.0000       0.078613         2.1392 
 1191   2.0000       0.078911         2.1473 
 1192   2.0000       0.079440         2.1617 
 1193   2.0000       0.079636         2.1670 
 1194   2.0000       0.079752         2.1702 
 1195   2.0000       0.080151         2.1810 
 1196   2.0000       0.080585         2.1928 
 1197   2.0000       0.081580         2.2199 
 1198   2.0000       0.081606         2.2206 
 1199   2.0000       0.082003         2.2314 
 1200   2.0000       0.082320         2.2400 
 1201   2.0000       0.082493         2.2447 
 1202   2.0000       0.082743         2.2516 
 1203   2.0000       0.082844         2.2543 
 1204   2.0000       0.083548         2.2735 
 1205   2.0000       0.083750         2.2789 
 1206   2.0000       0.083996         2.2856 
 1207   2.0000       0.084280         2.2934 
 1208   2.0000       0.084679         2.3042 
 1209   2.0000       0.085436         2.3248 
 1210   2.0000       0.085461         2.3255 
 1211   2.0000       0.085828         2.3355 
 1212   2.0000       0.086271         2.3476 
 1213   2.0000       0.087107         2.3703 
 1214   2.0000       0.087323         2.3762 
 1215   2.0000       0.087501         2.3810 
 1216   2.0000       0.087646         2.3850 
 1217   2.0000       0.088048         2.3959 
 1218   2.0000       0.088295         2.4026 
 1219   2.0000       0.088709         2.4139 
 1220   2.0000       0.089000         2.4218 
 1221   2.0000       0.089345         2.4312 
 1222   2.0000       0.089823         2.4442 
 1223   2.0000       0.090137         2.4527 
 1224   2.0000       0.090225         2.4552 
 1225   2.0000       0.090645         2.4666 
 1226   2.0000       0.091070         2.4781 
 1227   2.0000       0.091346         2.4857 
 1228   2.0000       0.091522         2.4904 
 1229   2.0000       0.091768         2.4971 
 1230   2.0000       0.091782         2.4975 
 1231   2.0000       0.092281         2.5111 
 1232   2.0000       0.092392         2.5141 
 1233   2.0000       0.092672         2.5217 
 1234   2.0000       0.092685         2.5221 
 1235   2.0000       0.092980         2.5301 
 1236   2.0000       0.093070         2.5326 
 1237   2.0000       0.093496         2.5441 
 1238   2.0000       0.093610         2.5473 
 1239   2.0000       0.093745         2.5509 
 1240   2.0000       0.094329         2.5668 
 1241   2.0000       0.094825         2.5803 
 1242   2.0000       0.094859         2.5812 
 1243   2.0000       0.095108         2.5880 
 1244   2.0000       0.095270         2.5924 
 1245   2.0000       0.095394         2.5958 
 1246   2.0000       0.095702         2.6042 
 1247   2.0000       0.095763         2.6058 
 1248   2.0000       0.096182         2.6172 
 1249   2.0000       0.096218         2.6182 
 1250   2.0000       0.096505         2.6260 
 1251   2.0000       0.097239         2.6460 
 1252   2.0000       0.097671         2.6578 
 1253   2.0000       0.097820         2.6618 
 1254   2.0000       0.098142         2.6706 
 1255   2.0000       0.098178         2.6715 
 1256   2.0000       0.098301         2.6749 
 1257   2.0000       0.098428         2.6784 
 1258   2.0000       0.098694         2.6856 
 1259   2.0000       0.099153         2.6981 
 1260   2.0000       0.099524         2.7082 
 1261   2.0000       0.100097         2.7238 
 1262   2.0000       0.100376         2.7314 
 1263   2.0000       0.100770         2.7421 
 1264   2.0000       0.101188         2.7535 
 1265   2.0000       0.101282         2.7560 
 1266   2.0000       0.101496         2.7619 
 1267   2.0000       0.101995         2.7754 
 1268   2.0000       0.102128         2.7791 
 1269   2.0000       0.102372         2.7857 
 1270   2.0000       0.103026         2.8035 
 1271   2.0000       0.103219         2.8087 
 1272   2.0000       0.104015         2.8304 
 1273   2.0000       0.104134         2.8336 
 1274   2.0000       0.104415         2.8413 
 1275   2.0000       0.104489         2.8433 
 1276   2.0000       0.104969         2.8563 
 1277   2.0000       0.105207         2.8628 
 1278   2.0000       0.105251         2.8640 
 1279   2.0000       0.106486         2.8976 
 1280   2.0000       0.106991         2.9114 
 1281   2.0000       0.107353         2.9212 
 1282   2.0000       0.107851         2.9348 
 1283   2.0000       0.108032         2.9397 
 1284   2.0000       0.108485         2.9520 
 1285   2.0000       0.108875         2.9627 
 1286   2.0000       0.108929         2.9641 
 1287   2.0000       0.109214         2.9719 
 1288   2.0000       0.109335         2.9752 
 1289   2.0000       0.109523         2.9803 
 1290   2.0000       0.109775         2.9871 
 1291   2.0000       0.110498         3.0068 
 1292   2.0000       0.110562         3.0085 
 1293   2.0000       0.110744         3.0135 
 1294   2.0000       0.111109         3.0234 
 1295   2.0000       0.111959         3.0466 
 1296   2.0000       0.112192         3.0529 
 1297   2.0000       0.112322         3.0564 
 1298   2.0000       0.112352         3.0573 
 1299   2.0000       0.112608         3.0642 
 1300   2.0000       0.113033         3.0758 
 1301   2.0000       0.113048         3.0762 
 1302   2.0000       0.113538         3.0895 
 1303   2.0000       0.113709         3.0942 
 1304   2.0000       0.114364         3.1120 
 1305   2.0000       0.114743         3.1223 
 1306   2.0000       0.114829         3.1246 
 1307   2.0000       0.115067         3.1311 
 1308   2.0000       0.115230         3.1356 
 1309   2.0000       0.115438         3.1412 
 1310   2.0000       0.115736         3.1493 
 1311   2.0000       0.115884         3.1534 
 1312   2.0000       0.116058         3.1581 
 1313   2.0000       0.116514         3.1705 
 1314   2.0000       0.116668         3.1747 
 1315   2.0000       0.117290         3.1916 
 1316   2.0000       0.117424         3.1953 
 1317   2.0000       0.117553         3.1988 
 1318   2.0000       0.117784         3.2051 
 1319   2.0000       0.117866         3.2073 
 1320   2.0000       0.118071         3.2129 
 1321   2.0000       0.118176         3.2157 
 1322   2.0000       0.118429         3.2226 
 1323   2.0000       0.118956         3.2369 
 1324   2.0000       0.120019         3.2659 
 1325   2.0000       0.120156         3.2696 
 1326   2.0000       0.120546         3.2802 
 1327   2.0000       0.120697         3.2843 
 1328   2.0000       0.121132         3.2962 
 1329   2.0000       0.121475         3.3055 
 1330   2.0000       0.121769         3.3135 
 1331   2.0000       0.121873         3.3163 
 1332   2.0000       0.122269         3.3271 
 1333   2.0000       0.122552         3.3348 
 1334   2.0000       0.122648         3.3374 
 1335   2.0000       0.123257         3.3540 
 1336   2.0000       0.123450         3.3593 
 1337   2.0000       0.123777         3.3681 
 1338   2.0000       0.124130         3.3777 
 1339   2.0000       0.124474         3.3871 
 1340   2.0000       0.124622         3.3911 
 1341   2.0000       0.124667         3.3924 
 1342   2.0000       0.124762         3.3950 
 1343   2.0000       0.124849         3.3973 
 1344   2.0000       0.124914         3.3991 
 1345   2.0000       0.125511         3.4153 
 1346   2.0000       0.126196         3.4340 
 1347   2.0000       0.127486         3.4691 
 1348   2.0000       0.127803         3.4777 
 1349   2.0000       0.128086         3.4854 
 1350   2.0000       0.128314         3.4916 
 1351   2.0000       0.128406         3.4941 
 1352   2.0000       0.129417         3.5216 
 1353   2.0000       0.129685         3.5289 
 1354   2.0000       0.130188         3.5426 
 1355   2.0000       0.130513         3.5514 
 1356   2.0000       0.131071         3.5666 
 1357   2.0000       0.131464         3.5773 
 1358   2.0000       0.131562         3.5800 
 1359   2.0000       0.131841         3.5876 
 1360   2.0000       0.132395         3.6026 
 1361   2.0000       0.132882         3.6159 
 1362   2.0000       0.133152         3.6232 
 1363   2.0000       0.133425         3.6307 
 1364   2.0000       0.133891         3.6434 
 1365   2.0000       0.134209         3.6520 
 1366   2.0000       0.134487         3.6596 
 1367   2.0000       0.134752         3.6668 
 1368   2.0000       0.134918         3.6713 
 1369   2.0000       0.135187         3.6786 
 1370   2.0000       0.135789         3.6950 
 1371   2.0000       0.135817         3.6958 
 1372   2.0000       0.135848         3.6966 
 1373   2.0000       0.136527         3.7151 
 1374   2.0000       0.137136         3.7317 
 1375   2.0000       0.137244         3.7346 
 1376   2.0000       0.137753         3.7484 
 1377   2.0000       0.138171         3.7598 
 1378   2.0000       0.138446         3.7673 
 1379   2.0000       0.138594         3.7713 
 1380   2.0000       0.138779         3.7764 
 1381   2.0000       0.139057         3.7839 
 1382   2.0000       0.139792         3.8039 
 1383   2.0000       0.140139         3.8134 
 1384   2.0000       0.140505         3.8233 
 1385   2.0000       0.140892         3.8339 
 1386   2.0000       0.141680         3.8553 
 1387   2.0000       0.142109         3.8670 
 1388   2.0000       0.142262         3.8712 
 1389   2.0000       0.142468         3.8767 
 1390   2.0000       0.143400         3.9021 
 1391   2.0000       0.143710         3.9106 
 1392   2.0000       0.144222         3.9245 
 1393   2.0000       0.144315         3.9270 
 1394   2.0000       0.144467         3.9311 
 1395   2.0000       0.144589         3.9345 
 1396   2.0000       0.144740         3.9386 
 1397   2.0000       0.144890         3.9427 
 1398   2.0000       0.145491         3.9590 
 1399   2.0000       0.146100         3.9756 
 1400   2.0000       0.146402         3.9838 
 1401   2.0000       0.146670         3.9911 
 1402   2.0000       0.146716         3.9923 
 1403   2.0000       0.146968         3.9992 
 1404   2.0000       0.147244         4.0067 
 1405   2.0000       0.147568         4.0155 
 1406   2.0000       0.148218         4.0332 
 1407   2.0000       0.148290         4.0352 
 1408   2.0000       0.148654         4.0451 
 1409   2.0000       0.148795         4.0489 
 1410   2.0000       0.149354         4.0641 
 1411   2.0000       0.149939         4.0800 
 1412   2.0000       0.149957         4.0805 
 1413   2.0000       0.150098         4.0844 
 1414   2.0000       0.150914         4.1066 
 1415   2.0000       0.151058         4.1105 
 1416   2.0000       0.151354         4.1186 
 1417   2.0000       0.151634         4.1262 
 1418   2.0000       0.151867         4.1325 
 1419   2.0000       0.152145         4.1401 
 1420   2.0000       0.152632         4.1533 
 1421   2.0000       0.152672         4.1544 
 1422   2.0000       0.153095         4.1659 
 1423   2.0000       0.153349         4.1728 
 1424   2.0000       0.153534         4.1779 
 1425   2.0000       0.153869         4.1870 
 1426   2.0000       0.153968         4.1897 
 1427   2.0000       0.154382         4.2010 
 1428   2.0000       0.154907         4.2152 
 1429   2.0000       0.155092         4.2203 
 1430   2.0000       0.155605         4.2342 
 1431   2.0000       0.156013         4.2453 
 1432   2.0000       0.156620         4.2618 
 1433   2.0000       0.156700         4.2640 
 1434   2.0000       0.157066         4.2740 
 1435   2.0000       0.158057         4.3009 
 1436   2.0000       0.158092         4.3019 
 1437   2.0000       0.158450         4.3117 
 1438   2.0000       0.158806         4.3213 
 1439   2.0000       0.159754         4.3471 
 1440   2.0000       0.159833         4.3493 
 1441   2.0000       0.160100         4.3565 
 1442   2.0000       0.160198         4.3592 
 1443   2.0000       0.161063         4.3827 
 1444   2.0000       0.161635         4.3983 
 1445   2.0000       0.161728         4.4009 
 1446   2.0000       0.161980         4.4077 
 1447   2.0000       0.162279         4.4158 
 1448   2.0000       0.162584         4.4241 
 1449   2.0000       0.163078         4.4376 
 1450   2.0000       0.163384         4.4459 
 1451   2.0000       0.163734         4.4554 
 1452   2.0000       0.163988         4.4623 
 1453   2.0000       0.164638         4.4800 
 1454   2.0000       0.164859         4.4860 
 1455   2.0000       0.165090         4.4923 
 1456   2.0000       0.165477         4.5029 
 1457   2.0000       0.166266         4.5243 
 1458   2.0000       0.166532         4.5316 
 1459   2.0000       0.167033         4.5452 
 1460   2.0000       0.167221         4.5503 
 1461   2.0000       0.167389         4.5549 
 1462   2.0000       0.168719         4.5911 
 1463   2.0000       0.168881         4.5955 
 1464   2.0000       0.169061         4.6004 
 1465   2.0000       0.170012         4.6263 
 1466   2.0000       0.170367         4.6359 
 1467   2.0000       0.170875         4.6497 
 1468   2.0000       0.171054         4.6546 
 1469   2.0000       0.171681         4.6717 
 1470   2.0000       0.172155         4.6846 
 1471   2.0000       0.172779         4.7016 
 1472   2.0000       0.172894         4.7047 
 1473   2.0000       0.173262         4.7147 
 1474   2.0000       0.173704         4.7267 
 1475   2.0000       0.173844         4.7305 
 1476   2.0000       0.174429         4.7465 
 1477   2.0000       0.174735         4.7548 
 1478   2.0000       0.174912         4.7596 
 1479   2.0000       0.175049         4.7633 
 1480   2.0000       0.175216         4.7679 
 1481   2.0000       0.175588         4.7780 
 1482   2.0000       0.175768         4.7829 
 1483   2.0000       0.176127         4.7926 
 1484   2.0000       0.176545         4.8040 
 1485   2.0000       0.177169         4.8210 
 1486   2.0000       0.177791         4.8379 
 1487   2.0000       0.178327         4.8525 
 1488   2.0000       0.178509         4.8575 
 1489   2.0000       0.179168         4.8754 
 1490   2.0000       0.179292         4.8788 
 1491   2.0000       0.179521         4.8850 
 1492   2.0000       0.180011         4.8984 
 1493   2.0000       0.180956         4.9241 
 1494   2.0000       0.181748         4.9456 
 1495   2.0000       0.182150         4.9566 
 1496   2.0000       0.182400         4.9634 
 1497   2.0000       0.182468         4.9652 
 1498   2.0000       0.183013         4.9800 
 1499   2.0000       0.183076         4.9817 
 1500   2.0000       0.183346         4.9891 
 1501   2.0000       0.183557         4.9949 
 1502   2.0000       0.184185         5.0119 
 1503   2.0000       0.184438         5.0188 
 1504   2.0000       0.184514         5.0209 
 1505   2.0000       0.185179         5.0390 
 1506   2.0000       0.185188         5.0392 
 1507   2.0000       0.185580         5.0499 
 1508   2.0000       0.185848         5.0572 
 1509   2.0000       0.185975         5.0606 
 1510   2.0000       0.186492         5.0747 
 1511   2.0000       0.186932         5.0867 
 1512   2.0000       0.187309         5.0969 
 1513   2.0000       0.187848         5.1116 
 1514   2.0000       0.188027         5.1165 
 1515   2.0000       0.188291         5.1237 
 1516   2.0000       0.188609         5.1323 
 1517   2.0000       0.188797         5.1374 
 1518   2.0000       0.188981         5.1424 
 1519   2.0000       0.189172         5.1476 
 1520   2.0000       0.189724         5.1627 
 1521   2.0000       0.189960         5.1691 
 1522   2.0000       0.190562         5.1854 
 1523   2.0000       0.191051         5.1988 
 1524   2.0000       0.191608         5.2139 
 1525   2.0000       0.191873         5.2211 
 1526   2.0000       0.192074         5.2266 
 1527   2.0000       0.192610         5.2412 
 1528   2.0000       0.193246         5.2585 
 1529   2.0000       0.193630         5.2689 
 1530   2.0000       0.194231         5.2853 
 1531   2.0000       0.194597         5.2952 
 1532   2.0000       0.194909         5.3037 
 1533   2.0000       0.196097         5.3361 
 1534   2.0000       0.196174         5.3382 
 1535   2.0000       0.196688         5.3522 
 1536   2.0000       0.197476         5.3736 
 1537   2.0000       0.198157         5.3921 
 1538   2.0000       0.198183         5.3928 
 1539   2.0000       0.198919         5.4129 
 1540   2.0000       0.198931         5.4132 
 1541   2.0000       0.199585         5.4310 
 1542   2.0000       0.199869         5.4387 
 1543   2.0000       0.200119         5.4455 
 1544   2.0000       0.200724         5.4620 
 1545   2.0000       0.200987         5.4691 
 1546   2.0000       0.201872         5.4932 
 1547   2.0000       0.202166         5.5012 
 1548   2.0000       0.202626         5.5137 
 1549   2.0000       0.203428         5.5356 
 1550   2.0000       0.203774         5.5450 
 1551   2.0000       0.203947         5.5497 
 1552   2.0000       0.204503         5.5648 
 1553   2.0000       0.204783         5.5724 
 1554   2.0000       0.205234         5.5847 
 1555   2.0000       0.205902         5.6029 
 1556   2.0000       0.207132         5.6363 
 1557   2.0000       0.207303         5.6410 
 1558   2.0000       0.207561         5.6480 
 1559   2.0000       0.207658         5.6507 
 1560   2.0000       0.208206         5.6656 
 1561   2.0000       0.208445         5.6721 
 1562   2.0000       0.208590         5.6760 
 1563   2.0000       0.208964         5.6862 
 1564   2.0000       0.209964         5.7134 
 1565   2.0000       0.210229         5.7206 
 1566   2.0000       0.210353         5.7240 
 1567   2.0000       0.210736         5.7344 
 1568   2.0000       0.210823         5.7368 
 1569   2.0000       0.211051         5.7430 
 1570   2.0000       0.211756         5.7622 
 1571   2.0000       0.212343         5.7781 
 1572   2.0000       0.212951         5.7947 
 1573   2.0000       0.213515         5.8100 
 1574   2.0000       0.213798         5.8177 
 1575   2.0000       0.214185         5.8283 
 1576   2.0000       0.214525         5.8375 
 1577   2.0000       0.214672         5.8415 
 1578   2.0000       0.214865         5.8468 
 1579   2.0000       0.215336         5.8596 
 1580   2.0000       0.215794         5.8720 
 1581   2.0000       0.216113         5.8807 
 1582   2.0000       0.216508         5.8915 
 1583   2.0000       0.216696         5.8966 
 1584   2.0000       0.217362         5.9147 
 1585   2.0000       0.217499         5.9184 
 1586   2.0000       0.218130         5.9356 
 1587   2.0000       0.218174         5.9368 
 1588   2.0000       0.218778         5.9532 
 1589   2.0000       0.219009         5.9595 
 1590   2.0000       0.219342         5.9686 
 1591   2.0000       0.219543         5.9741 
 1592   2.0000       0.219618         5.9761 
 1593   2.0000       0.220056         5.9880 
 1594   2.0000       0.220132         5.9901 
 1595   2.0000       0.220713         6.0059 
 1596   2.0000       0.220894         6.0108 
 1597   2.0000       0.220973         6.0130 
 1598   2.0000       0.221361         6.0235 
 1599   2.0000       0.221638         6.0311 
 1600   2.0000       0.222218         6.0469 
 1601   2.0000       0.222651         6.0586 
 1602   2.0000       0.222771         6.0619 
 1603   2.0000       0.223480         6.0812 
 1604   2.0000       0.223764         6.0889 
 1605   2.0000       0.224735         6.1154 
 1606   2.0000       0.225055         6.1241 
 1607   2.0000       0.225135         6.1262 
 1608   2.0000       0.225492         6.1359 
 1609   2.0000       0.225639         6.1399 
 1610   2.0000       0.226485         6.1630 
 1611   2.0000       0.227057         6.1785 
 1612   2.0000       0.227138         6.1807 
 1613   2.0000       0.227412         6.1882 
 1614   2.0000       0.227711         6.1963 
 1615   2.0000       0.227926         6.2022 
 1616   2.0000       0.228157         6.2085 
 1617   2.0000       0.228407         6.2153 
 1618   2.0000       0.228935         6.2296 
 1619   2.0000       0.229292         6.2394 
 1620   2.0000       0.229419         6.2428 
 1621   2.0000       0.229851         6.2546 
 1622   2.0000       0.230498         6.2722 
 1623   2.0000       0.230783         6.2799 
 1624   2.0000       0.231174         6.2906 
 1625   2.0000       0.231599         6.3021 
 1626   2.0000       0.231928         6.3111 
 1627   2.0000       0.232337         6.3222 
 1628   2.0000       0.232662         6.3311 
 1629   2.0000       0.232931         6.3384 
 1630   2.0000       0.233464         6.3529 
 1631   2.0000       0.233832         6.3629 
 1632   2.0000       0.234067         6.3693 
 1633   2.0000       0.234510         6.3813 
 1634   2.0000       0.235329         6.4036 
 1635   2.0000       0.235829         6.4172 
 1636   2.0000       0.235855         6.4179 
 1637   2.0000       0.236286         6.4297 
 1638   2.0000       0.236670         6.4401 
 1639   2.0000       0.237141         6.4529 
 1640   2.0000       0.237335         6.4582 
 1641   2.0000       0.237729         6.4689 
 1642   2.0000       0.238172         6.4810 
 1643   2.0000       0.238921         6.5014 
 1644   2.0000       0.239225         6.5096 
 1645   2.0000       0.240594         6.5469 
 1646   2.0000       0.240753         6.5512 
 1647   2.0000       0.241140         6.5618 
 1648   2.0000       0.241180         6.5629 
 1649   2.0000       0.241507         6.5717 
 1650   2.0000       0.241725         6.5777 
 1651   2.0000       0.241926         6.5831 
 1652   2.0000       0.242469         6.5979 
 1653   2.0000       0.242812         6.6073 
 1654   2.0000       0.243273         6.6198 
 1655   2.0000       0.243982         6.6391 
 1656   2.0000       0.244186         6.6446 
 1657   2.0000       0.244533         6.6541 
 1658   2.0000       0.245092         6.6693 
 1659   2.0000       0.245429         6.6784 
 1660   2.0000       0.245858         6.6901 
 1661   2.0000       0.246980         6.7207 
 1662   2.0000       0.247430         6.7329 
 1663   2.0000       0.247644         6.7387 
 1664   2.0000       0.247738         6.7413 
 1665   2.0000       0.249289         6.7835 
 1666   2.0000       0.249974         6.8021 
 1667   2.0000       0.250246         6.8095 
 1668   2.0000       0.250899         6.8273 
 1669   2.0000       0.251425         6.8416 
 1670   2.0000       0.252141         6.8611 
 1671   2.0000       0.252494         6.8707 
 1672   2.0000       0.252808         6.8793 
 1673   2.0000       0.253020         6.8850 
 1674   2.0000       0.253240         6.8910 
 1675   2.0000       0.253898         6.9089 
 1676   2.0000       0.254415         6.9230 
 1677   2.0000       0.254765         6.9325 
 1678   2.0000       0.254856         6.9350 
 1679   2.0000       0.255156         6.9431 
 1680   2.0000       0.255644         6.9564 
 1681   2.0000       0.256484         6.9793 
 1682   2.0000       0.257044         6.9945 
 1683   2.0000       0.257578         7.0091 
 1684   2.0000       0.257779         7.0145 
 1685   2.0000       0.258957         7.0466 
 1686   2.0000       0.259571         7.0633 
 1687   2.0000       0.260592         7.0911 
 1688   2.0000       0.260878         7.0988 
 1689   2.0000       0.260983         7.1017 
 1690   2.0000       0.261446         7.1143 
 1691   2.0000       0.262239         7.1359 
 1692   2.0000       0.262746         7.1497 
 1693   2.0000       0.263011         7.1569 
 1694   2.0000       0.263313         7.1651 
 1695   2.0000       0.263479         7.1696 
 1696   2.0000       0.264389         7.1944 
 1697   2.0000       0.265663         7.2290 
 1698   2.0000       0.266029         7.2390 
 1699   2.0000       0.266916         7.2632 
 1700   2.0000       0.267015         7.2658 
 1701   2.0000       0.267563         7.2808 
 1702   2.0000       0.267738         7.2855 
 1703   2.0000       0.268118         7.2958 
 1704   2.0000       0.268639         7.3100 
 1705   2.0000       0.269926         7.3451 
 1706   2.0000       0.270268         7.3544 
 1707   2.0000       0.270569         7.3625 
 1708   2.0000       0.270933         7.3725 
 1709   2.0000       0.271458         7.3868 
 1710   2.0000       0.271952         7.4002 
 1711   2.0000       0.272347         7.4109 
 1712   2.0000       0.273159         7.4330 
 1713   2.0000       0.273198         7.4341 
 1714   2.0000       0.273713         7.4481 
 1715   2.0000       0.274154         7.4601 
 1716   2.0000       0.274218         7.4619 
 1717   2.0000       0.274739         7.4760 
 1718   2.0000       0.275268         7.4904 
 1719   2.0000       0.276095         7.5129 
 1720   2.0000       0.276177         7.5152 
 1721   2.0000       0.276589         7.5264 
 1722   2.0000       0.277022         7.5381 
 1723   2.0000       0.277524         7.5518 
 1724   2.0000       0.278319         7.5735 
 1725   2.0000       0.279281         7.5996 
 1726   2.0000       0.280033         7.6201 
 1727   2.0000       0.280423         7.6307 
 1728   2.0000       0.280949         7.6450 
 1729   2.0000       0.281638         7.6638 
 1730   2.0000       0.282179         7.6785 
 1731   2.0000       0.282729         7.6934 
 1732   2.0000       0.284076         7.7301 
 1733   2.0000       0.284352         7.7376 
 1734   2.0000       0.285668         7.7734 
 1735   2.0000       0.285991         7.7822 
 1736   2.0000       0.286179         7.7873 
 1737   2.0000       0.286495         7.7959 
 1738   2.0000       0.288159         7.8412 
 1739   2.0000       0.288392         7.8475 
 1740   2.0000       0.289138         7.8678 
 1741   2.0000       0.289655         7.8819 
 1742   2.0000       0.290161         7.8957 
 1743   2.0000       0.291007         7.9187 
 1744   2.0000       0.291182         7.9235 
 1745   2.0000       0.292112         7.9488 
 1746   2.0000       0.292951         7.9716 
 1747   2.0000       0.293313         7.9815 
 1748   2.0000       0.295550         8.0423 
 1749   2.0000       0.295847         8.0504 
 1750   2.0000       0.296413         8.0658 
 1751   2.0000       0.296851         8.0777 
 1752   2.0000       0.297146         8.0858 
 1753   2.0000       0.298776         8.1301 
 1754   2.0000       0.299302         8.1444 
 1755   2.0000       0.300905         8.1880 
 1756   2.0000       0.301097         8.1933 
 1757   2.0000       0.301993         8.2176 
 1758   2.0000       0.302175         8.2226 
 1759   2.0000       0.302549         8.2328 
 1760   2.0000       0.303136         8.2487 
 1761   2.0000       0.304263         8.2794 
 1762   2.0000       0.305209         8.3052 
 1763   2.0000       0.306944         8.3524 
 1764   2.0000       0.308232         8.3874 
 1765   2.0000       0.309585         8.4242 
 1766   2.0000       0.311715         8.4822 
 1767   2.0000       0.313153         8.5213 
 1768   2.0000       0.313624         8.5341 
 1769   2.0000       0.315646         8.5892 
 1770   2.0000       0.316853         8.6220 
 1771   2.0000       0.317842         8.6489 
 1772   2.0000       0.321164         8.7393 
 1773   2.0000       0.322044         8.7633 
 1774   2.0000       0.322301         8.7702 
 1775   2.0000       0.323680         8.8078 
 1776   2.0000       0.325532         8.8582 
 1777   2.0000       0.331716         9.0265 
 1778   2.0000       0.332406         9.0452 
 1779   2.0000       0.335140         9.1196 
 1780   2.0000       0.343567         9.3489 
 1781   2.0000       0.345665         9.4060 
 1782   2.0000       0.363657         9.8956 
 1783   2.0000       0.374529        10.1915 
 1784   0.0000       0.536366        14.5952 
 1785   0.0000       0.537331        14.6215 
 1786   0.0000       0.539740        14.6871 
 1787   0.0000       0.540215        14.7000 
 1788   0.0000       0.555191        15.1075 
 1789   0.0000       0.556150        15.1336 
 1790   0.0000       0.556266        15.1368 
 1791   0.0000       0.556911        15.1543 
 1792   0.0000       0.557371        15.1668 
 1793   0.0000       0.557372        15.1669 
 1794   0.0000       0.573881        15.6161 
*Only the first 10 virtual orbitals were printed.
Total SCF time: 0 days 0 hours 1 min 41 sec 
Finished LeanSCF after 101.5 sec

Maximum memory used throughout the entire LEANSCF-calculation: 709.0 MB

------------------------------------------------------------------------------
                         ORCA PROPERTY INTEGRAL CALCULATIONS
------------------------------------------------------------------------------

GBWName                                   ... orca_zindos_lessprint.gbw
Number of atoms                           ...    817
Number of basis functions                 ...   2761
Max core memory                           ...  40000 MB

Dipole integrals                          ... YES
Quadrupole integrals                      ...  NO
Linear momentum integrals                 ... YES
Angular momentum integrals                ... YES
Higher moments length integrals           ...  NO
Higher moments velocity integrals         ...  NO
Kinetic energy integrals                  ...  NO
GIAO right hand sides                     ...  NO
GIAO dipole derivative integrals          ...  NO
SOC integrals                             ...  NO
EPR diamagnetic integrals (GIAO)          ...  NO
EPR gauge integrals                       ...  NO
Field gradient integrals                  ...  NO (   0 nuclei)
Spin-dipole/Fermi contact integrals       ...  NO (   0 nuclei)
Contact density integrals                 ...  NO (   0 nuclei)
Nucleus-orbit integrals                   ...  NO (   0 nuclei)
Geometric perturbations                   ...  NO ( 817 nuclei)

Choice of electric origin   ... Center of mass
Position of electric origin ... ( 26.1896, 33.0350, 17.8012) 
Choice of magnetic origin   ... GIAO
Position of magnetic origin ... (  0.0000,  0.0000,  0.0000) 

Calculating integrals                     ... Electric Dipole (Length)     done (  0.3 sec)
Calculating integrals                     ... Linear Momentum              done (  0.5 sec)
Calculating integrals                     ... Angular Momentum  (ElOri)    done (  0.5 sec)

Property integrals calculated in   1.3 sec

Maximum memory used throughout the entire PROPINT-calculation: 635.6 MB
------------------------------------------------------------------------------
                         ORCA CIS CALCULATION
------------------------------------------------------------------------------

Input orbitals are from        ... orca_zindos_lessprint.gbw
CI-vector output               ... orca_zindos_lessprint.cis
Solver                         ... FN-2001
Tamm-Dancoff approximation     ... operative
CIS-Integral strategy          ... AO-integrals
Integral handling              ... AO integral Conventional
Reference state                ... RHF
Generation of triplets         ... off
Follow IRoot                   ... off
Number of operators            ... 1
Orbital ranges used for CIS calculation:
 Operator 0:  Orbitals   0...1783  to 1784...2760
XAS localization array:
 Operator 0:  Orbitals  -1... -1

------------------------
DAVIDSON-DIAGONALIZATION
------------------------

Dimension of the eigenvalue problem            ... 1742968
Number of roots to be determined               ...     50
Maximum size of the expansion space            ...    500
Maximum number of iterations                   ...    100
Convergence tolerance for the residual         ...    1.000e-06
Convergence tolerance for the energies         ...    1.000e-06
Orthogonality tolerance                        ...    1.000e-14
Level Shift                                    ...    0.000e+00
Constructing the preconditioner                ... o.k.
Building the initial guess                     ... o.k.
Number of trial vectors determined             ...    500


                       ****Iteration    0****
   Time for iteration     :  TOTAL=254.4 TRAFO=212.7 2-EL=32.9
   Size of expansion space: 150
   Lowest Energy          :     0.125415393728
   Maximum Energy change  :     0.175206936927 (vector 49)
   Maximum residual norm  :     0.000014452571

                       ****Iteration    1****
   Time for iteration     :  TOTAL=80.8 TRAFO=71.9 2-EL=6.1
   Size of expansion space: 200
   Lowest Energy          :     0.125400022175
   Maximum Energy change  :     0.000301681516 (vector 41)
   Maximum residual norm  :     0.000001546062

                       ****Iteration    2****
   Time for iteration     :  TOTAL=80.9 TRAFO=71.8 2-EL=6.2
   Size of expansion space: 250
   Lowest Energy          :     0.125399898414
   Maximum Energy change  :     0.000019748912 (vector 44)
   Maximum residual norm  :     0.000000136314

      *** CONVERGENCE OF RESIDUAL NORM REACHED ***

Storing the converged CI vectors               ... orca_zindos_lessprint.cis1

                 *** DAVIDSON DONE ***

Total time for solving the CIS problem:   928.535sec

-----------------------------
CIS-EXCITED STATES (SINGLETS)
-----------------------------

the weight of the individual excitations are printed if larger than 1.0e-02

STATE  1:  E=   0.125400 au      3.412 eV    27522.1 cm**-1 <S**2> =   0.000000 Mult 1
   1783a -> 1787a  :     0.996871 (c=  0.99843442)

STATE  2:  E=   0.129219 au      3.516 eV    28360.4 cm**-1 <S**2> =   0.000000 Mult 1
   1783a -> 1786a  :     0.998325 (c= -0.99916221)

STATE  3:  E=   0.133147 au      3.623 eV    29222.4 cm**-1 <S**2> =   0.000000 Mult 1
   1783a -> 1784a  :     0.999055 (c=  0.99952755)

STATE  4:  E=   0.135753 au      3.694 eV    29794.4 cm**-1 <S**2> =   0.000000 Mult 1
   1783a -> 1785a  :     0.999246 (c= -0.99962278)

STATE  5:  E=   0.135913 au      3.698 eV    29829.4 cm**-1 <S**2> =   0.000000 Mult 1
   1782a -> 1787a  :     0.994994 (c=  0.99749395)

STATE  6:  E=   0.139929 au      3.808 eV    30710.8 cm**-1 <S**2> =   0.000000 Mult 1
   1782a -> 1786a  :     0.996874 (c=  0.99843586)

STATE  7:  E=   0.142354 au      3.874 eV    31243.1 cm**-1 <S**2> =   0.000000 Mult 1
   1783a -> 1793a  :     0.995985 (c= -0.99799058)

STATE  8:  E=   0.144137 au      3.922 eV    31634.5 cm**-1 <S**2> =   0.000000 Mult 1
   1782a -> 1784a  :     0.998937 (c= -0.99946814)

STATE  9:  E=   0.146308 au      3.981 eV    32111.0 cm**-1 <S**2> =   0.000000 Mult 1
   1783a -> 1791a  :     0.998725 (c=  0.99936227)

STATE 10:  E=   0.146790 au      3.994 eV    32216.8 cm**-1 <S**2> =   0.000000 Mult 1
   1782a -> 1785a  :     0.999135 (c=  0.99956746)

STATE 11:  E=   0.149029 au      4.055 eV    32708.1 cm**-1 <S**2> =   0.000000 Mult 1
   1781a -> 1787a  :     0.992355 (c=  0.99617035)

STATE 12:  E=   0.149668 au      4.073 eV    32848.3 cm**-1 <S**2> =   0.000000 Mult 1
   1783a -> 1788a  :     0.151708 (c= -0.38949743)
   1783a -> 1789a  :     0.846765 (c=  0.92019831)

STATE 13:  E=   0.151487 au      4.122 eV    33247.5 cm**-1 <S**2> =   0.000000 Mult 1
   1783a -> 1788a  :     0.848069 (c= -0.92090645)
   1783a -> 1789a  :     0.151671 (c= -0.38944925)

STATE 14:  E=   0.153111 au      4.166 eV    33604.1 cm**-1 <S**2> =   0.000000 Mult 1
   1783a -> 1790a  :     0.179528 (c=  0.42370773)
   1783a -> 1792a  :     0.819475 (c=  0.90524882)

STATE 15:  E=   0.153184 au      4.168 eV    33620.0 cm**-1 <S**2> =   0.000000 Mult 1
   1782a -> 1793a  :     0.994089 (c= -0.99704005)

STATE 16:  E=   0.154312 au      4.199 eV    33867.6 cm**-1 <S**2> =   0.000000 Mult 1
   1783a -> 1790a  :     0.820125 (c= -0.90560741)
   1783a -> 1792a  :     0.179456 (c=  0.42362250)

STATE 17:  E=   0.156266 au      4.252 eV    34296.5 cm**-1 <S**2> =   0.000000 Mult 1
   1779a -> 1787a  :     0.070383 (c= -0.26529788)
   1780a -> 1787a  :     0.900078 (c= -0.94872438)

STATE 18:  E=   0.157205 au      4.278 eV    34502.5 cm**-1 <S**2> =   0.000000 Mult 1
   1782a -> 1791a  :     0.997245 (c= -0.99862145)

STATE 19:  E=   0.157301 au      4.280 eV    34523.5 cm**-1 <S**2> =   0.000000 Mult 1
   1783a -> 1795a  :     0.995131 (c= -0.99756260)

STATE 20:  E=   0.157646 au      4.290 eV    34599.4 cm**-1 <S**2> =   0.000000 Mult 1
   1779a -> 1786a  :     0.042510 (c=  0.20617872)
   1780a -> 1786a  :     0.919223 (c= -0.95876099)
   1781a -> 1786a  :     0.025146 (c=  0.15857374)

STATE 21:  E=   0.160724 au      4.374 eV    35274.9 cm**-1 <S**2> =   0.000000 Mult 1
   1782a -> 1788a  :     0.159913 (c=  0.39989125)
   1782a -> 1789a  :     0.838085 (c= -0.91546956)

STATE 22:  E=   0.161201 au      4.387 eV    35379.5 cm**-1 <S**2> =   0.000000 Mult 1
   1781a -> 1784a  :     0.996689 (c= -0.99834323)

STATE 23:  E=   0.161385 au      4.392 eV    35419.9 cm**-1 <S**2> =   0.000000 Mult 1
   1780a -> 1786a  :     0.025144 (c= -0.15856729)
   1781a -> 1786a  :     0.970255 (c= -0.98501534)

STATE 24:  E=   0.161472 au      4.394 eV    35439.0 cm**-1 <S**2> =   0.000000 Mult 1
   1783a -> 1794a  :     0.994411 (c= -0.99720162)

STATE 25:  E=   0.162001 au      4.408 eV    35555.1 cm**-1 <S**2> =   0.000000 Mult 1
   1783a -> 1799a  :     0.991662 (c= -0.99582204)

STATE 26:  E=   0.162413 au      4.419 eV    35645.4 cm**-1 <S**2> =   0.000000 Mult 1
   1782a -> 1788a  :     0.839662 (c= -0.91633048)
   1782a -> 1789a  :     0.159894 (c= -0.39986773)

STATE 27:  E=   0.162473 au      4.421 eV    35658.7 cm**-1 <S**2> =   0.000000 Mult 1
   1777a -> 1787a  :     0.514978 (c= -0.71761972)
   1779a -> 1787a  :     0.411552 (c= -0.64152318)
   1780a -> 1787a  :     0.046974 (c=  0.21673561)

STATE 28:  E=   0.164209 au      4.468 eV    36039.8 cm**-1 <S**2> =   0.000000 Mult 1
   1782a -> 1790a  :     0.196072 (c=  0.44280063)
   1782a -> 1792a  :     0.802713 (c=  0.89594238)

STATE 29:  E=   0.164877 au      4.487 eV    36186.3 cm**-1 <S**2> =   0.000000 Mult 1
   1780a -> 1784a  :     0.989483 (c=  0.99472757)

STATE 30:  E=   0.165310 au      4.498 eV    36281.4 cm**-1 <S**2> =   0.000000 Mult 1
   1782a -> 1790a  :     0.803449 (c= -0.89635337)
   1782a -> 1792a  :     0.195982 (c=  0.44269805)

STATE 31:  E=   0.165414 au      4.501 eV    36304.3 cm**-1 <S**2> =   0.000000 Mult 1
   1781a -> 1793a  :     0.989164 (c= -0.99456742)

STATE 32:  E=   0.165829 au      4.512 eV    36395.3 cm**-1 <S**2> =   0.000000 Mult 1
   1777a -> 1786a  :     0.154467 (c=  0.39302274)
   1778a -> 1786a  :     0.069303 (c=  0.26325419)
   1779a -> 1786a  :     0.737022 (c= -0.85850012)
   1780a -> 1786a  :     0.030683 (c= -0.17516661)

STATE 33:  E=   0.166254 au      4.524 eV    36488.5 cm**-1 <S**2> =   0.000000 Mult 1
   1780a -> 1785a  :     0.624918 (c= -0.79051784)
   1781a -> 1785a  :     0.363772 (c=  0.60313539)

STATE 34:  E=   0.166445 au      4.529 eV    36530.5 cm**-1 <S**2> =   0.000000 Mult 1
   1778a -> 1786a  :     0.925228 (c=  0.96188786)
   1779a -> 1786a  :     0.063854 (c=  0.25269264)

STATE 35:  E=   0.166772 au      4.538 eV    36602.3 cm**-1 <S**2> =   0.000000 Mult 1
   1780a -> 1785a  :     0.359934 (c=  0.59994525)
   1781a -> 1785a  :     0.635646 (c=  0.79727419)

STATE 36:  E=   0.167481 au      4.557 eV    36757.9 cm**-1 <S**2> =   0.000000 Mult 1
   1783a -> 1798a  :     0.998473 (c= -0.99923622)

STATE 37:  E=   0.167619 au      4.561 eV    36788.1 cm**-1 <S**2> =   0.000000 Mult 1
   1782a -> 1795a  :     0.982557 (c=  0.99124036)

STATE 38:  E=   0.168411 au      4.583 eV    36962.0 cm**-1 <S**2> =   0.000000 Mult 1
   1775a -> 1787a  :     0.013337 (c=  0.11548442)
   1777a -> 1787a  :     0.421499 (c=  0.64922928)
   1778a -> 1787a  :     0.018935 (c= -0.13760475)
   1779a -> 1787a  :     0.493168 (c= -0.70225934)
   1780a -> 1787a  :     0.025885 (c=  0.16088731)

STATE 39:  E=   0.170581 au      4.642 eV    37438.3 cm**-1 <S**2> =   0.000000 Mult 1
   1777a -> 1787a  :     0.017960 (c=  0.13401608)
   1778a -> 1787a  :     0.957781 (c=  0.97866303)

STATE 40:  E=   0.172071 au      4.682 eV    37765.3 cm**-1 <S**2> =   0.000000 Mult 1
   1772a -> 1787a  :     0.077814 (c=  0.27895174)
   1773a -> 1787a  :     0.039220 (c=  0.19803929)
   1774a -> 1787a  :     0.654377 (c=  0.80893601)
   1775a -> 1787a  :     0.182339 (c= -0.42701227)
   1776a -> 1787a  :     0.028201 (c=  0.16793110)

STATE 41:  E=   0.172094 au      4.683 eV    37770.2 cm**-1 <S**2> =   0.000000 Mult 1
   1782a -> 1794a  :     0.994007 (c=  0.99699885)

STATE 42:  E=   0.172750 au      4.701 eV    37914.2 cm**-1 <S**2> =   0.000000 Mult 1
   1777a -> 1793a  :     0.020189 (c= -0.14208800)
   1779a -> 1793a  :     0.112768 (c= -0.33580997)
   1780a -> 1793a  :     0.842695 (c= -0.91798445)

STATE 43:  E=   0.173021 au      4.708 eV    37973.8 cm**-1 <S**2> =   0.000000 Mult 1
   1771a -> 1786a  :     0.012674 (c= -0.11257934)
   1774a -> 1786a  :     0.018327 (c= -0.13537800)
   1776a -> 1786a  :     0.508490 (c=  0.71308492)
   1777a -> 1786a  :     0.366124 (c=  0.60508199)
   1779a -> 1786a  :     0.075718 (c=  0.27516905)

STATE 44:  E=   0.173253 au      4.714 eV    38024.7 cm**-1 <S**2> =   0.000000 Mult 1
   1782a -> 1799a  :     0.986482 (c= -0.99321798)

STATE 45:  E=   0.173256 au      4.715 eV    38025.2 cm**-1 <S**2> =   0.000000 Mult 1
   1783a -> 1796a  :     0.988373 (c= -0.99416967)

STATE 46:  E=   0.173386 au      4.718 eV    38053.9 cm**-1 <S**2> =   0.000000 Mult 1
   1777a -> 1784a  :     0.090158 (c= -0.30026297)
   1779a -> 1784a  :     0.891711 (c= -0.94430434)

STATE 47:  E=   0.173790 au      4.729 eV    38142.5 cm**-1 <S**2> =   0.000000 Mult 1
   1773a -> 1786a  :     0.014040 (c= -0.11849124)
   1775a -> 1786a  :     0.031761 (c= -0.17821570)
   1776a -> 1786a  :     0.412820 (c= -0.64251094)
   1777a -> 1786a  :     0.437099 (c=  0.66113488)
   1779a -> 1786a  :     0.072140 (c=  0.26858811)

STATE 48:  E=   0.174575 au      4.750 eV    38314.8 cm**-1 <S**2> =   0.000000 Mult 1
   1779a -> 1791a  :     0.036949 (c=  0.19222220)
   1780a -> 1791a  :     0.923334 (c= -0.96090273)
   1781a -> 1791a  :     0.023580 (c=  0.15355626)

STATE 49:  E=   0.174744 au      4.755 eV    38352.0 cm**-1 <S**2> =   0.000000 Mult 1
   1774a -> 1785a  :     0.011109 (c=  0.10540075)
   1775a -> 1785a  :     0.029731 (c=  0.17242821)
   1777a -> 1785a  :     0.070514 (c= -0.26554413)
   1778a -> 1785a  :     0.036119 (c=  0.19004902)
   1779a -> 1785a  :     0.830337 (c=  0.91122802)

STATE 50:  E=   0.175196 au      4.767 eV    38451.0 cm**-1 <S**2> =   0.000000 Mult 1
   1783a -> 1797a  :     0.998946 (c=  0.99947295)

Storing amplitudes in GBW file ... 
... GBW file created

----------------------
CIS-EXCITATION SPECTRA
----------------------

Center of mass = ( 26.1896, 33.0350, 17.8012)
Generating CIS transition densities           ... done

----------------------------------------------------------------------------------------------------
                     ABSORPTION SPECTRUM VIA TRANSITION ELECTRIC DIPOLE MOMENTS    
----------------------------------------------------------------------------------------------------
     Transition      Energy     Energy  Wavelength fosc(D2)      D2        DX        DY        DZ   
                      (eV)      (cm-1)    (nm)                 (au**2)    (au)      (au)      (au)  
----------------------------------------------------------------------------------------------------
  0-1A  ->  1-1A    3.412305   27522.1   363.3   0.000000000   0.00000   0.00000   0.00000  -0.00000
  0-1A  ->  2-1A    3.516235   28360.4   352.6   0.000000000   0.00000  -0.00000  -0.00000   0.00000
  0-1A  ->  3-1A    3.623121   29222.4   342.2   0.000000000   0.00000   0.00000   0.00000  -0.00000
  0-1A  ->  4-1A    3.694040   29794.4   335.6   0.000000000   0.00000   0.00000  -0.00000  -0.00000
  0-1A  ->  5-1A    3.698370   29829.4   335.2   0.000000000   0.00000   0.00000  -0.00000   0.00000
  0-1A  ->  6-1A    3.807658   30710.8   325.6   0.000000000   0.00000   0.00000  -0.00000  -0.00000
  0-1A  ->  7-1A    3.873655   31243.1   320.1   0.000000000   0.00000   0.00000  -0.00000  -0.00000
  0-1A  ->  8-1A    3.922177   31634.5   316.1   0.000000000   0.00000  -0.00000  -0.00000   0.00000
  0-1A  ->  9-1A    3.981254   32111.0   311.4   0.000000000   0.00000   0.00000   0.00001  -0.00000
  0-1A  -> 10-1A    3.994371   32216.8   310.4   0.000000000   0.00000  -0.00000   0.00000  -0.00000
  0-1A  -> 11-1A    4.055289   32708.1   305.7   0.000000000   0.00000  -0.00001  -0.00000  -0.00001
  0-1A  -> 12-1A    4.072672   32848.3   304.4   0.000000000   0.00000   0.00000   0.00000  -0.00000
  0-1A  -> 13-1A    4.122159   33247.5   300.8   0.000000000   0.00000  -0.00000  -0.00000   0.00000
  0-1A  -> 14-1A    4.166373   33604.1   297.6   0.000000000   0.00000   0.00000  -0.00000  -0.00000
  0-1A  -> 15-1A    4.168346   33620.0   297.4   0.000000000   0.00000  -0.00000   0.00001   0.00000
  0-1A  -> 16-1A    4.199047   33867.6   295.3   0.000000000   0.00000   0.00000  -0.00000  -0.00000
  0-1A  -> 17-1A    4.252226   34296.5   291.6   0.000000000   0.00000  -0.00001  -0.00000  -0.00000
  0-1A  -> 18-1A    4.277761   34502.5   289.8   0.000000000   0.00000  -0.00000  -0.00000   0.00000
  0-1A  -> 19-1A    4.280369   34523.5   289.7   0.000000000   0.00000   0.00000   0.00000   0.00000
  0-1A  -> 20-1A    4.289778   34599.4   289.0   0.000000000   0.00000  -0.00000   0.00001  -0.00000
  0-1A  -> 21-1A    4.373533   35274.9   283.5   0.000000000   0.00000  -0.00000  -0.00000   0.00000
  0-1A  -> 22-1A    4.386502   35379.5   282.6   0.000000000   0.00000  -0.00000   0.00000   0.00000
  0-1A  -> 23-1A    4.391504   35419.9   282.3   0.000000000   0.00000  -0.00000  -0.00000   0.00000
  0-1A  -> 24-1A    4.393870   35439.0   282.2   0.000000000   0.00000   0.00000  -0.00000   0.00000
  0-1A  -> 25-1A    4.408264   35555.1   281.3   0.000000000   0.00000  -0.00002   0.00002   0.00004
  0-1A  -> 26-1A    4.419472   35645.4   280.5   0.000000000   0.00000  -0.00000  -0.00000   0.00000
  0-1A  -> 27-1A    4.421115   35658.7   280.4   0.000000000   0.00000   0.00000  -0.00001   0.00000
  0-1A  -> 28-1A    4.468363   36039.8   277.5   0.000000000   0.00000   0.00000  -0.00000   0.00000
  0-1A  -> 29-1A    4.486528   36186.3   276.3   0.000000000   0.00000  -0.00000   0.00000   0.00000
  0-1A  -> 30-1A    4.498320   36281.4   275.6   0.000000000   0.00000   0.00000  -0.00000   0.00000
  0-1A  -> 31-1A    4.501156   36304.3   275.4   0.000000000   0.00000   0.00000  -0.00002   0.00000
  0-1A  -> 32-1A    4.512436   36395.3   274.8   0.000000000   0.00000   0.00000   0.00002  -0.00000
  0-1A  -> 33-1A    4.523998   36488.5   274.1   0.000000000   0.00000  -0.00000  -0.00000  -0.00000
  0-1A  -> 34-1A    4.529203   36530.5   273.7   0.000000000   0.00000  -0.00001  -0.00001   0.00001
  0-1A  -> 35-1A    4.538102   36602.3   273.2   0.000000000   0.00000   0.00000   0.00000   0.00000
  0-1A  -> 36-1A    4.557394   36757.9   272.1   0.000000000   0.00000  -0.00001  -0.00000  -0.00001
  0-1A  -> 37-1A    4.561137   36788.1   271.8   0.000000000   0.00000   0.00001   0.00002   0.00002
  0-1A  -> 38-1A    4.582705   36962.0   270.5   0.000000000   0.00000  -0.00000  -0.00002   0.00001
  0-1A  -> 39-1A    4.641752   37438.3   267.1   0.000000000   0.00000   0.00000   0.00000   0.00000
  0-1A  -> 40-1A    4.682298   37765.3   264.8   0.000000001   0.00000  -0.00004  -0.00005  -0.00004
  0-1A  -> 41-1A    4.682906   37770.2   264.8   0.000000000   0.00000   0.00000  -0.00000  -0.00000
  0-1A  -> 42-1A    4.700756   37914.2   263.8   0.000000000   0.00000  -0.00000   0.00000  -0.00000
  0-1A  -> 43-1A    4.708145   37973.8   263.3   0.000000000   0.00000  -0.00000   0.00000   0.00000
  0-1A  -> 44-1A    4.714457   38024.7   263.0   0.000000000   0.00000  -0.00001   0.00001   0.00001
  0-1A  -> 45-1A    4.714529   38025.2   263.0   0.000000000   0.00000  -0.00000  -0.00000  -0.00000
  0-1A  -> 46-1A    4.718084   38053.9   262.8   0.000000000   0.00000  -0.00000   0.00000   0.00000
  0-1A  -> 47-1A    4.729070   38142.5   262.2   0.000000000   0.00000  -0.00000   0.00000   0.00001
  0-1A  -> 48-1A    4.750428   38314.8   261.0   0.000000000   0.00000  -0.00000   0.00003  -0.00001
  0-1A  -> 49-1A    4.755036   38352.0   260.7   0.000000000   0.00000   0.00000   0.00000   0.00000
  0-1A  -> 50-1A    4.767321   38451.0   260.1   0.000000000   0.00000   0.00000   0.00000   0.00000

----------------------------------------------------------------------------------------------------
                     ABSORPTION SPECTRUM VIA TRANSITION VELOCITY DIPOLE MOMENTS    
----------------------------------------------------------------------------------------------------
     Transition      Energy     Energy  Wavelength fosc(P2)      P2        PX        PY        PZ   
                      (eV)      (cm-1)    (nm)                 (au**2)    (au)      (au)      (au)  
----------------------------------------------------------------------------------------------------
  0-1A  ->  1-1A    3.412305   27522.1   363.3   0.000000000   0.00000   0.00000  -0.00000  -0.00000
  0-1A  ->  2-1A    3.516235   28360.4   352.6   0.000000000   0.00000   0.00000  -0.00000   0.00000
  0-1A  ->  3-1A    3.623121   29222.4   342.2   0.000000000   0.00000   0.00000  -0.00000  -0.00000
  0-1A  ->  4-1A    3.694040   29794.4   335.6   0.000000000   0.00000   0.00000   0.00000   0.00000
  0-1A  ->  5-1A    3.698370   29829.4   335.2   0.000000000   0.00000   0.00000   0.00000   0.00000
  0-1A  ->  6-1A    3.807658   30710.8   325.6   0.000000000   0.00000  -0.00000   0.00000   0.00000
  0-1A  ->  7-1A    3.873655   31243.1   320.1   0.000000000   0.00000  -0.00000  -0.00000   0.00000
  0-1A  ->  8-1A    3.922177   31634.5   316.1   0.000000000   0.00000  -0.00000   0.00000   0.00000
  0-1A  ->  9-1A    3.981254   32111.0   311.4   0.000000000   0.00000  -0.00000   0.00000  -0.00000
  0-1A  -> 10-1A    3.994371   32216.8   310.4   0.000000000   0.00000  -0.00000  -0.00000  -0.00000
  0-1A  -> 11-1A    4.055289   32708.1   305.7   0.000000000   0.00000  -0.00000  -0.00000  -0.00000
  0-1A  -> 12-1A    4.072672   32848.3   304.4   0.000000000   0.00000   0.00000  -0.00000  -0.00000
  0-1A  -> 13-1A    4.122159   33247.5   300.8   0.000000000   0.00000  -0.00000   0.00000   0.00000
  0-1A  -> 14-1A    4.166373   33604.1   297.6   0.000000000   0.00000   0.00000   0.00000   0.00000
  0-1A  -> 15-1A    4.168346   33620.0   297.4   0.000000000   0.00000   0.00000   0.00000  -0.00000
  0-1A  -> 16-1A    4.199047   33867.6   295.3   0.000000000   0.00000   0.00000   0.00000  -0.00000
  0-1A  -> 17-1A    4.252226   34296.5   291.6   0.000000000   0.00000  -0.00001  -0.00000  -0.00000
  0-1A  -> 18-1A    4.277761   34502.5   289.8   0.000000000   0.00000   0.00000  -0.00000   0.00000
  0-1A  -> 19-1A    4.280369   34523.5   289.7   0.000000000   0.00000   0.00000   0.00000   0.00000
  0-1A  -> 20-1A    4.289778   34599.4   289.0   0.000000000   0.00000  -0.00001   0.00001   0.00000
  0-1A  -> 21-1A    4.373533   35274.9   283.5   0.000000000   0.00000  -0.00000   0.00000   0.00000
  0-1A  -> 22-1A    4.386502   35379.5   282.6   0.000000000   0.00000  -0.00000   0.00000   0.00000
  0-1A  -> 23-1A    4.391504   35419.9   282.3   0.000000000   0.00000   0.00000   0.00000  -0.00000
  0-1A  -> 24-1A    4.393870   35439.0   282.2   0.000000000   0.00000  -0.00000   0.00000   0.00000
  0-1A  -> 25-1A    4.408264   35555.1   281.3   0.000000003   0.00000   0.00002   0.00001  -0.00001
  0-1A  -> 26-1A    4.419472   35645.4   280.5   0.000000000   0.00000  -0.00000   0.00000   0.00000
  0-1A  -> 27-1A    4.421115   35658.7   280.4   0.000000000   0.00000   0.00000  -0.00001  -0.00000
  0-1A  -> 28-1A    4.468363   36039.8   277.5   0.000000000   0.00000   0.00000   0.00000   0.00000
  0-1A  -> 29-1A    4.486528   36186.3   276.3   0.000000000   0.00000  -0.00000   0.00000   0.00000
  0-1A  -> 30-1A    4.498320   36281.4   275.6   0.000000000   0.00000   0.00000   0.00000   0.00000
  0-1A  -> 31-1A    4.501156   36304.3   275.4   0.000000000   0.00000  -0.00000  -0.00001  -0.00000
  0-1A  -> 32-1A    4.512436   36395.3   274.8   0.000000001   0.00000  -0.00001   0.00001   0.00000
  0-1A  -> 33-1A    4.523998   36488.5   274.1   0.000000000   0.00000  -0.00000  -0.00000  -0.00000
  0-1A  -> 34-1A    4.529203   36530.5   273.7   0.000000000   0.00000  -0.00000   0.00000   0.00000
  0-1A  -> 35-1A    4.538102   36602.3   273.2   0.000000000   0.00000   0.00000   0.00000   0.00000
  0-1A  -> 36-1A    4.557394   36757.9   272.1   0.000000000   0.00000   0.00000  -0.00000   0.00000
  0-1A  -> 37-1A    4.561137   36788.1   271.8   0.000000004   0.00000   0.00003   0.00002   0.00001
  0-1A  -> 38-1A    4.582705   36962.0   270.5   0.000000001   0.00000  -0.00001  -0.00001  -0.00000
  0-1A  -> 39-1A    4.641752   37438.3   267.1   0.000000000   0.00000   0.00000   0.00001   0.00001
  0-1A  -> 40-1A    4.682298   37765.3   264.8   0.000000006   0.00000  -0.00002  -0.00003  -0.00001
  0-1A  -> 41-1A    4.682906   37770.2   264.8   0.000000000   0.00000  -0.00000   0.00001   0.00001
  0-1A  -> 42-1A    4.700756   37914.2   263.8   0.000000000   0.00000  -0.00000   0.00000  -0.00000
  0-1A  -> 43-1A    4.708145   37973.8   263.3   0.000000000   0.00000  -0.00000   0.00000   0.00000
  0-1A  -> 44-1A    4.714457   38024.7   263.0   0.000000001   0.00000   0.00002   0.00000  -0.00000
  0-1A  -> 45-1A    4.714529   38025.2   263.0   0.000000000   0.00000  -0.00000   0.00000   0.00000
  0-1A  -> 46-1A    4.718084   38053.9   262.8   0.000000000   0.00000  -0.00000   0.00000   0.00000
  0-1A  -> 47-1A    4.729070   38142.5   262.2   0.000000000   0.00000  -0.00000   0.00000   0.00000
  0-1A  -> 48-1A    4.750428   38314.8   261.0   0.000000001   0.00000  -0.00001   0.00001  -0.00000
  0-1A  -> 49-1A    4.755036   38352.0   260.7   0.000000000   0.00000   0.00000   0.00000   0.00000
  0-1A  -> 50-1A    4.767321   38451.0   260.1   0.000000000   0.00000   0.00000   0.00000   0.00000

------------------------------------------------------------------------------------------
                     CD SPECTRUM VIA TRANSITION ELECTRIC DIPOLE MOMENTS    
------------------------------------------------------------------------------------------
     Transition      Energy     Energy  Wavelength    R        MX        MY        MZ   
                      (eV)      (cm-1)    (nm)   (1e40*cgs)   (au)      (au)      (au)  
------------------------------------------------------------------------------------------
  0-1A  ->  1-1A    3.412305   27522.1   363.3   -0.00000   0.00000   0.00000  -0.00000
  0-1A  ->  2-1A    3.516235   28360.4   352.6   -0.00000   0.00000   0.00000   0.00001
  0-1A  ->  3-1A    3.623121   29222.4   342.2   -0.00000   0.00000  -0.00000   0.00000
  0-1A  ->  4-1A    3.694040   29794.4   335.6    0.00000  -0.00000  -0.00000   0.00000
  0-1A  ->  5-1A    3.698370   29829.4   335.2    0.00000  -0.00000  -0.00000  -0.00001
  0-1A  ->  6-1A    3.807658   30710.8   325.6   -0.00000  -0.00001  -0.00000  -0.00001
  0-1A  ->  7-1A    3.873655   31243.1   320.1   -0.00000  -0.00000  -0.00000  -0.00000
  0-1A  ->  8-1A    3.922177   31634.5   316.1   -0.00000  -0.00000   0.00000  -0.00000
  0-1A  ->  9-1A    3.981254   32111.0   311.4    0.00000  -0.00000  -0.00000  -0.00002
  0-1A  -> 10-1A    3.994371   32216.8   310.4    0.00000   0.00000   0.00000  -0.00000
  0-1A  -> 11-1A    4.055289   32708.1   305.7    0.00000  -0.00002   0.00001   0.00001
  0-1A  -> 12-1A    4.072672   32848.3   304.4   -0.00000   0.00000  -0.00000   0.00000
  0-1A  -> 13-1A    4.122159   33247.5   300.8   -0.00000  -0.00000  -0.00000  -0.00000
  0-1A  -> 14-1A    4.166373   33604.1   297.6    0.00000  -0.00000  -0.00000   0.00000
  0-1A  -> 15-1A    4.168346   33620.0   297.4    0.00000   0.00000  -0.00000   0.00001
  0-1A  -> 16-1A    4.199047   33867.6   295.3    0.00000  -0.00000   0.00000   0.00000
  0-1A  -> 17-1A    4.252226   34296.5   291.6    0.00000   0.00001   0.00000  -0.00000
  0-1A  -> 18-1A    4.277761   34502.5   289.8   -0.00000   0.00000   0.00000   0.00001
  0-1A  -> 19-1A    4.280369   34523.5   289.7    0.00000  -0.00001  -0.00000  -0.00000
  0-1A  -> 20-1A    4.289778   34599.4   289.0   -0.00000  -0.00001  -0.00000  -0.00002
  0-1A  -> 21-1A    4.373533   35274.9   283.5   -0.00000  -0.00000   0.00000  -0.00000
  0-1A  -> 22-1A    4.386502   35379.5   282.6   -0.00000  -0.00000  -0.00000  -0.00000
  0-1A  -> 23-1A    4.391504   35419.9   282.3   -0.00000   0.00000   0.00000   0.00000
  0-1A  -> 24-1A    4.393870   35439.0   282.2    0.00000  -0.00000   0.00000  -0.00000
  0-1A  -> 25-1A    4.408264   35555.1   281.3   -0.00000   0.00006  -0.00005   0.00008
  0-1A  -> 26-1A    4.419472   35645.4   280.5   -0.00000  -0.00000  -0.00000  -0.00000
  0-1A  -> 27-1A    4.421115   35658.7   280.4   -0.00000  -0.00000  -0.00002   0.00001
  0-1A  -> 28-1A    4.468363   36039.8   277.5    0.00000  -0.00000  -0.00000   0.00000
  0-1A  -> 29-1A    4.486528   36186.3   276.3   -0.00000  -0.00000  -0.00000  -0.00000
  0-1A  -> 30-1A    4.498320   36281.4   275.6    0.00000  -0.00000   0.00000   0.00000
  0-1A  -> 31-1A    4.501156   36304.3   275.4   -0.00000   0.00001  -0.00000  -0.00001
  0-1A  -> 32-1A    4.512436   36395.3   274.8   -0.00000  -0.00002   0.00000  -0.00003
  0-1A  -> 33-1A    4.523998   36488.5   274.1    0.00000   0.00000  -0.00000  -0.00000
  0-1A  -> 34-1A    4.529203   36530.5   273.7   -0.00000   0.00001   0.00000   0.00003
  0-1A  -> 35-1A    4.538102   36602.3   273.2   -0.00000  -0.00000   0.00000   0.00000
  0-1A  -> 36-1A    4.557394   36757.9   272.1    0.00000  -0.00001  -0.00001   0.00002
  0-1A  -> 37-1A    4.561137   36788.1   271.8    0.00000  -0.00001  -0.00003   0.00002
  0-1A  -> 38-1A    4.582705   36962.0   270.5    0.00000   0.00003   0.00000  -0.00005
  0-1A  -> 39-1A    4.641752   37438.3   267.1   -0.00000  -0.00001  -0.00001   0.00002
  0-1A  -> 40-1A    4.682298   37765.3   264.8    0.00000  -0.00002   0.00003   0.00002
  0-1A  -> 41-1A    4.682906   37770.2   264.8   -0.00000  -0.00003  -0.00000  -0.00002
  0-1A  -> 42-1A    4.700756   37914.2   263.8    0.00000   0.00001  -0.00001  -0.00001
  0-1A  -> 43-1A    4.708145   37973.8   263.3   -0.00000  -0.00000   0.00000   0.00000
  0-1A  -> 44-1A    4.714457   38024.7   263.0   -0.00000   0.00002  -0.00000   0.00007
  0-1A  -> 45-1A    4.714529   38025.2   263.0   -0.00000  -0.00000  -0.00000  -0.00000
  0-1A  -> 46-1A    4.718084   38053.9   262.8   -0.00000  -0.00000  -0.00000  -0.00000
  0-1A  -> 47-1A    4.729070   38142.5   262.2    0.00000   0.00000   0.00000  -0.00000
  0-1A  -> 48-1A    4.750428   38314.8   261.0   -0.00000  -0.00000  -0.00001  -0.00005
  0-1A  -> 49-1A    4.755036   38352.0   260.7    0.00000  -0.00000   0.00000   0.00000
  0-1A  -> 50-1A    4.767321   38451.0   260.1   -0.00000  -0.00000   0.00000   0.00000

------------------------------------------------------------------------------------------
                     CD SPECTRUM VIA TRANSITION VELOCITY DIPOLE MOMENTS    
------------------------------------------------------------------------------------------
     Transition      Energy     Energy  Wavelength    R        MX        MY        MZ   
                      (eV)      (cm-1)    (nm)   (1e40*cgs)   (au)      (au)      (au)  
------------------------------------------------------------------------------------------
  0-1A  ->  1-1A    3.412305   27522.1   363.3   -0.00000   0.00000   0.00000  -0.00000
  0-1A  ->  2-1A    3.516235   28360.4   352.6    0.00000   0.00000   0.00000   0.00001
  0-1A  ->  3-1A    3.623121   29222.4   342.2    0.00000   0.00000  -0.00000   0.00000
  0-1A  ->  4-1A    3.694040   29794.4   335.6   -0.00000  -0.00000  -0.00000   0.00000
  0-1A  ->  5-1A    3.698370   29829.4   335.2   -0.00000  -0.00000  -0.00000  -0.00001
  0-1A  ->  6-1A    3.807658   30710.8   325.6   -0.00000  -0.00001  -0.00000  -0.00001
  0-1A  ->  7-1A    3.873655   31243.1   320.1    0.00000  -0.00000  -0.00000  -0.00000
  0-1A  ->  8-1A    3.922177   31634.5   316.1    0.00000  -0.00000   0.00000  -0.00000
  0-1A  ->  9-1A    3.981254   32111.0   311.4    0.00000  -0.00000  -0.00000  -0.00002
  0-1A  -> 10-1A    3.994371   32216.8   310.4    0.00000   0.00000   0.00000  -0.00000
  0-1A  -> 11-1A    4.055289   32708.1   305.7    0.00000  -0.00002   0.00001   0.00001
  0-1A  -> 12-1A    4.072672   32848.3   304.4    0.00000   0.00000  -0.00000   0.00000
  0-1A  -> 13-1A    4.122159   33247.5   300.8    0.00000  -0.00000  -0.00000  -0.00000
  0-1A  -> 14-1A    4.166373   33604.1   297.6   -0.00000  -0.00000  -0.00000   0.00000
  0-1A  -> 15-1A    4.168346   33620.0   297.4   -0.00000   0.00000  -0.00000   0.00001
  0-1A  -> 16-1A    4.199047   33867.6   295.3   -0.00000  -0.00000   0.00000   0.00000
  0-1A  -> 17-1A    4.252226   34296.5   291.6   -0.00000   0.00001   0.00000  -0.00000
  0-1A  -> 18-1A    4.277761   34502.5   289.8    0.00000   0.00000   0.00000   0.00001
  0-1A  -> 19-1A    4.280369   34523.5   289.7   -0.00000  -0.00001  -0.00000  -0.00000
  0-1A  -> 20-1A    4.289778   34599.4   289.0    0.00000  -0.00001  -0.00000  -0.00002
  0-1A  -> 21-1A    4.373533   35274.9   283.5    0.00000  -0.00000   0.00000  -0.00000
  0-1A  -> 22-1A    4.386502   35379.5   282.6   -0.00000  -0.00000  -0.00000  -0.00000
  0-1A  -> 23-1A    4.391504   35419.9   282.3   -0.00000   0.00000   0.00000   0.00000
  0-1A  -> 24-1A    4.393870   35439.0   282.2    0.00000  -0.00000   0.00000  -0.00000
  0-1A  -> 25-1A    4.408264   35555.1   281.3    0.00000   0.00006  -0.00005   0.00008
  0-1A  -> 26-1A    4.419472   35645.4   280.5    0.00000  -0.00000  -0.00000  -0.00000
  0-1A  -> 27-1A    4.421115   35658.7   280.4    0.00000  -0.00000  -0.00002   0.00001
  0-1A  -> 28-1A    4.468363   36039.8   277.5   -0.00000  -0.00000  -0.00000   0.00000
  0-1A  -> 29-1A    4.486528   36186.3   276.3   -0.00000  -0.00000  -0.00000  -0.00000
  0-1A  -> 30-1A    4.498320   36281.4   275.6   -0.00000  -0.00000   0.00000   0.00000
  0-1A  -> 31-1A    4.501156   36304.3   275.4    0.00000   0.00001  -0.00000  -0.00001
  0-1A  -> 32-1A    4.512436   36395.3   274.8    0.00000  -0.00002   0.00000  -0.00003
  0-1A  -> 33-1A    4.523998   36488.5   274.1    0.00000   0.00000  -0.00000  -0.00000
  0-1A  -> 34-1A    4.529203   36530.5   273.7    0.00000   0.00001   0.00000   0.00003
  0-1A  -> 35-1A    4.538102   36602.3   273.2    0.00000  -0.00000   0.00000   0.00000
  0-1A  -> 36-1A    4.557394   36757.9   272.1   -0.00000  -0.00001  -0.00001   0.00002
  0-1A  -> 37-1A    4.561137   36788.1   271.8   -0.00000  -0.00001  -0.00003   0.00002
  0-1A  -> 38-1A    4.582705   36962.0   270.5   -0.00000   0.00003   0.00000  -0.00005
  0-1A  -> 39-1A    4.641752   37438.3   267.1   -0.00000  -0.00001  -0.00001   0.00002
  0-1A  -> 40-1A    4.682298   37765.3   264.8   -0.00000  -0.00002   0.00003   0.00002
  0-1A  -> 41-1A    4.682906   37770.2   264.8   -0.00000  -0.00003  -0.00000  -0.00002
  0-1A  -> 42-1A    4.700756   37914.2   263.8   -0.00000   0.00001  -0.00001  -0.00001
  0-1A  -> 43-1A    4.708145   37973.8   263.3    0.00000  -0.00000   0.00000   0.00000
  0-1A  -> 44-1A    4.714457   38024.7   263.0    0.00000   0.00002  -0.00000   0.00007
  0-1A  -> 45-1A    4.714529   38025.2   263.0    0.00000  -0.00000  -0.00000  -0.00000
  0-1A  -> 46-1A    4.718084   38053.9   262.8   -0.00000  -0.00000  -0.00000  -0.00000
  0-1A  -> 47-1A    4.729070   38142.5   262.2   -0.00000   0.00000   0.00000  -0.00000
  0-1A  -> 48-1A    4.750428   38314.8   261.0    0.00000  -0.00000  -0.00001  -0.00005
  0-1A  -> 49-1A    4.755036   38352.0   260.7   -0.00000  -0.00000   0.00000   0.00000
  0-1A  -> 50-1A    4.767321   38451.0   260.1   -0.00000  -0.00000   0.00000   0.00000

Total run time:     1026.207 sec

           *** ORCA-CIS/TD-DFT FINISHED WITHOUT ERROR ***
-----------------------
CIS/TD-DFT TOTAL ENERGY
-----------------------

    E(SCF)  = -13413.675475327 Eh
    DE(CIS) =      0.125399898 Eh (Root  1)
    ----------------------------- ---------
    E(tot)  = -13413.550075429 Eh


Maximum memory used throughout the entire CIS-calculation: 20038.6 MB
=> NOW LEAVING ORCA_CIS

-------------------------   --------------------
FINAL SINGLE POINT ENERGY    -13413.550075428942
-------------------------   --------------------


------------------------------------------------------------------------------
                              ORCA PROPERTY CALCULATIONS
------------------------------------------------------------------------------

GBWName                                 ... orca_zindos_lessprint.gbw
Number of atoms                         ...    817
Number of basis functions               ...   2761
Max core memory                         ...  40000 MB

Electric properties:
Dipole moment                           ... YES
Quadrupole moment                       ...  NO
Static polarizability (Dipole/Dipole)   ...  NO
Static polarizability (Dipole/Quad.)    ...  NO
Static polarizability (Quad./Quad.)     ...  NO
Static polarizability (Velocity)        ...  NO
Static hyperpolarizability              ...  NO

Atomic electric properties:
Dipole moment                           ...  NO
Quadrupole moment                       ...  NO
Static polarizability                   ...  NO

Choice of electric origin               ... Center of mass
Position of electric origin             ...    26.189605    33.035045    17.801191

General magnetic properties:
Magnetizability                         ...  NO

EPR properties:
g-Tensor (aka g-matrix)                 ...  NO
Zero-Field splitting spin-orbit         ...  NO
Zero-field splitting spin-spin          ...  NO
Hyperfine couplings                     ...  NO (   0 nuclei)
Quadrupole couplings                    ...  NO (   0 nuclei)
Contact density                         ...  NO (   0 nuclei)

NMR properties:
Chemical shifts                         ...  NO (   0 nuclei)
Spin-rotation constants                 ...  NO (   0 nuclei)
Spin-spin couplings                     ...  NO (   0 nuclei,    0 pairs)

Choice of magnetic origin               ... GIAO
Position of magnetic origin             ...     0.000000     0.000000     0.000000

Properties with geometric perturbations:
SCF Hessian                             ...  NO
IR spectrum                             ...  NO
VCD spectrum                            ...  NO
X-ray spectroscopy properties:
SCF XES/XAS/RIXS spectra                ...  NO

SCF SOC stabilization energy            ...  NO
Diagonal Born-Oppenheimer correction    ...  NO

-------------
DIPOLE MOMENT
-------------

Method             : SCF
Type of density    : Electron Density
Multiplicity       :   1
Irrep              :   0
Energy             : -13413.6754753273562528 Eh
Basis              : AO
                                X                 Y                 Z
Electronic contribution:     -2.325508522       4.175629646     -13.721315250
Nuclear contribution   :      2.066948789       0.794345537      11.828774012
                        -----------------------------------------
Total Dipole Moment    :     -0.258559733       4.969975184      -1.892541238
                        -----------------------------------------
Magnitude (a.u.)       :      5.324398445
Magnitude (Debye)      :     13.533545318



--------------------
Rotational spectrum 
--------------------
 
Rotational constants in cm-1:             0.000019             0.000013             0.000010 
Rotational constants in MHz :             0.556214             0.398584             0.304908 

Dipole components along the rotational axes: 
x,y,z [a.u.] :     4.898837    -0.257692    -2.069832 
x,y,z [Debye]:    12.451855    -0.655002    -5.261096 

 

Dipole moment calculation done in   0.1 sec 

Maximum memory used throughout the entire PROP-calculation: 543.6 MB

--------------------------------
SUGGESTED CITATIONS FOR THIS RUN
--------------------------------

Below you find a list of papers that are relevant to this ORCA run
We neither can nor want to force you to cite these papers, but we appreciate if you do
You receive ORCA, which is the product of decades of hard work by many enthusiastic individuals, for free
The only thing we kindly ask in return is that you cite our papers,
We deeply appreciate it, if you show your appreciation for ORCA by not just citing the generic ORCA reference.

Please note that relegating all ORCA citations to the supporting information does *not* help us.
SI sections are not indexed - citations you put there will not count into any citation statistics
But we need these citations in order to attract the funding resources that allow us to do what we are doing

Therefore, if you are a happy ORCA user, please consider citing a few of the papers listed below in the main body of your paper

In addition to the list printed below, the program has created the file orca_zindos_lessprint.bibtex that contains the list in bibtex format
You can import this file easily into all common literature databanks and citation aid programs

It goes without saying that in many instances, there are alternative algorithms to achieve similar
results as the ones you have gotten from ORCA. It is, of course, also the case that in some instances
ORCA just re-implements algorithms worked out by others. We are fully aware of that and we are also
fully appreciative of our colleagues work. Hence this citation list should not be read as indicating
that the listed papers, which are focused on our own work, are the only ones worth citing. It simply
meant to make it easier for users to cite ORCA specific papers. It is not a substitute for doing your
own literature research and citing the relevant literature in a scientifically appropriate manner.

List of essential papers. We consider these as the minimum necessary citations

  1. Ridley, J.; Zerner, M.
     An Intermediate Neglect of Differential Overlap Technique for Spectroscopy: Pyrrole and the Azines
     Theor. Chim. Acta 1973 32 , 111-134
     doi.org/10.1007/BF00528484
  2. Neese, F.
     Software update: the ORCA program system, version 6.0
     WIRES Comput. Molec. Sci. 2025 15(1), e70019
     doi.org/10.1002/wcms.70019

List of papers to cite with high priority. The work reported in these papers was absolutely
necessary for this run to complete.
Our perspective: the developers of density functionals and basis sets usually get cited in chemistry papers
Good! But without the algorithms to do something with them, the functionals or basis sets would not do anything.
Hence, in our opinion, the algorithm design and method developments papers are equally worthy of getting cited

  1. Bacon, A.D.; Zerner, M.C.
     An Intermediate Neglect of Differential Overlap Theory for Transition Metal Complexes: Fe, Co and Cu Chlorides
     Theor. Chim. Acta 1979 53 , 21-54
     doi.org/10.1007/BF00547605
  2. Neese, F.; Olbrich, G.
     Efficient use of the resolution of the identity approximation in time-dependent density functional calculations with hybrid density functionals
     Chem. Phys. Lett. 2002 362 , 170-178
     doi.org/10.1016/s0009-2614(02)01053-9
  3. Neese, F.
     The SHARK Integral Generation and Digestion System
     J. Comp. Chem. 2022 44(3), 381
     doi.org/10.1002/jcc.26942

List of suggested additional citations. These are papers that are important in the 'surrounding' of 
of this run, or papers that preceded the highly important papers. If you like your results we are grateful for a citation.

  1. Neese, F.
     The ORCA program system
     WIRES Comput. Molec. Sci. 2012 2(1), 73-78
     doi.org/10.1002/wcms.81
  2. Neese, F.
     Software update: the ORCA program system, version 4.0
     WIRES Comput. Molec. Sci. 2018 8(1), 1-6
     doi.org/10.1002/wcms.1327
  3. Neese, F.; Wennmohs, F.; Becker, U.; Riplinger, C.
     The ORCA quantum chemistry program package
     J. Chem. Phys. 2020 152(22), 224108
     doi.org/10.1063/5.0004608
  4. Neese, F.
     Software update: The ORCA program system—Version 5.0
     WIRES Comput. Molec. Sci. 2022 12(1), e1606
     doi.org/10.1002/wcms.1606

List of optional additional citations

  1. Neese, F.
     Approximate second-order SCF convergence for spin unrestricted wavefunctions
     Chem. Phys. Lett. 2000 325(1-3), 93-98
     doi.org/10.1016/s0009-2614(00)00662-x

Timings for individual modules:

Sum of individual times          ...     1145.420 sec (=  19.090 min)
STO integral calculation         ...        0.335 sec (=   0.006 min)   0.0 %
SCF iterations                   ...      116.296 sec (=   1.938 min)  10.2 %
Property integrals               ...        1.748 sec (=   0.029 min)   0.2 %
Property calculations            ...        0.620 sec (=   0.010 min)   0.1 %
CIS module                       ...     1026.420 sec (=  17.107 min)  89.6 %
                             ****ORCA TERMINATED NORMALLY****
TOTAL RUN TIME: 0 days 0 hours 19 minutes 5 seconds 627 msec
