%Chk=/scratch/gpfs/yp1065/TMD/pair_pot_Gaussian/H-F/UCCSDTfull-H-F-S1-ID2/d0.25/single_E.chk
%Mem=8GB
%NProcShared=14
# UCCSD(T,full)/aug-cc-pVQZ 
#  Guess=Mix Int=(DKH,Grid=UltraFine)
#  SCF=XQC NoSymm geom=nocrowd

H - F single point at R = 0.25 A

0 1
H
F  1  0.25

